%nproc=24
%mem=175gb
#p wB97XD/Def2SVP td=(nstates=5)

TDDFT excited states in gaussian

0 1
Mg 25.26700 0.12000 29.48500
C  27.14100 -0.08700 32.36300
C  22.44200 0.65100 31.48400
C  23.33900 0.24400 26.71700
C  27.97000 -0.76800 27.63500
N  24.82700 -0.00300 31.72000
C  25.83000 0.13900 32.68700
C  25.26100 0.57400 34.05200
C  23.73000 0.68200 33.70700
C  23.61100 0.48500 32.21100
C  22.87000 -0.30200 34.49000
C  25.80700 1.87500 34.74000
C  26.64900 1.68700 36.11600
H  25.98700 2.43400 37.27800
N  23.21300 0.29800 29.14100
C  22.23900 0.64000 30.09300
C  20.97400 1.01400 29.45200
C  21.16000 0.82900 27.97700
C  22.63600 0.50000 27.85200
C  19.74900 1.44500 30.22800
C  20.23300 0.96600 26.86300
O  20.59800 0.66100 25.71800
C  18.79000 1.40700 27.03500
N  25.61300 -0.29200 27.55300
C  24.69700 -0.04800 26.51300
C  25.29200 -0.18000 25.05300
C  26.81800 -0.54700 25.43400
C  26.79800 -0.51500 26.97900
C  24.57500 -1.29000 24.13700
C  27.83300 0.46900 24.80600
C  29.13600 -0.06400 24.29800
N  27.18000 -0.44400 29.94400
C  28.21700 -0.73500 29.05300
C  29.45900 -0.85000 29.73800
C  29.08500 -0.49600 31.08700
C  27.69300 -0.34600 31.12700
C  30.82000 -1.11200 29.24500
C  29.58400 -0.41400 32.42400
O  30.70000 -0.50100 32.94800
C  28.28000 -0.28500 33.33500
C  28.18400 -1.48700 34.20500
O  27.52600 -2.44100 34.06000
O  28.92900 -1.30000 35.36700
C  28.48600 -2.07100 36.51000
H  21.58300 0.90400 32.10900
H  22.84400 0.32400 25.74700
H  28.87000 -0.90500 27.03200
H  25.38700 -0.24700 34.75700
H  23.31500 1.64400 34.00900
H  22.43700 -1.01900 33.79300
H  22.09100 0.33900 34.90100
H  23.35600 -0.79100 35.33400
H  24.95600 2.52500 34.94500
H  26.49900 2.40700 34.08700
H  27.58200 2.20000 35.88200
H  26.76100 0.62900 36.35200
H  19.34600 0.54600 30.69600
H  19.02800 1.84900 29.51900
H  19.97500 2.10600 31.06500
H  18.28300 1.10300 26.11900
H  18.67500 2.47500 27.22300
H  18.18400 0.86400 27.76000
H  25.32400 0.80000 24.57800
H  27.16700 -1.50900 25.05800
H  25.34100 -1.79600 23.54900
H  23.91500 -0.92500 23.35100
H  24.00900 -2.02000 24.71600
H  28.05800 1.32200 25.44600
H  27.45300 0.92700 23.89300
H  29.88300 0.35500 24.97200
H  29.54600 0.28700 23.35100
H  29.13600 -1.15300 24.35500
H  30.88400 -0.76300 28.21400
H  30.89900 -2.19900 29.25700
H  31.53400 -0.73600 29.97800
H  28.35300 0.59900 33.96800
H  28.85600 -3.07500 36.30500
H  27.39700 -2.05300 36.47000
H  28.92200 -1.70000 37.43800
Mg 40.80400 41.48400 27.15800
C  39.93800 43.96600 29.51800
C  41.67100 39.43500 29.59200
C  42.41200 39.59100 24.81200
C  40.80000 44.20800 24.65700
N  40.84000 41.74700 29.31900
C  40.23400 42.70800 30.04600
C  40.11400 42.23500 31.50800
C  40.62500 40.83000 31.52200
C  41.12800 40.63200 30.06000
C  41.62900 40.55000 32.71400
C  38.74000 42.40700 32.23800
C  38.20000 41.35400 33.29800
H  37.58800 41.87900 34.60500
N  41.67300 39.62800 27.19200
C  41.94100 38.92200 28.34300
C  42.50600 37.66000 27.95800
C  42.79100 37.65600 26.53700
C  42.34000 39.00600 26.13300
C  42.84100 36.69600 29.02300
C  43.34600 36.53900 25.61900
O  43.54900 36.75600 24.47000
C  43.39500 35.12400 26.09600
N  41.54800 41.90500 25.04000
C  42.04300 40.86300 24.33500
C  42.34300 41.24800 22.85100
C  41.79900 42.70700 22.76800
C  41.36100 43.00200 24.22400
C  43.78600 41.15300 22.43200
C  40.63300 43.00600 21.76200
C  39.24100 42.61000 22.12200
N  40.45200 43.63600 26.97900
C  40.44000 44.51600 25.93500
C  39.94600 45.79200 26.39200
C  39.72700 45.66500 27.78900
C  40.09700 44.34100 28.10100
C  39.86300 47.06500 25.62600
C  39.33400 46.33800 28.99400
O  38.92600 47.46900 29.23200
C  39.40400 45.25700 30.16400
C  40.16300 45.75100 31.38400
O  41.33900 46.00900 31.38400
O  39.30000 45.80400 32.46700
C  39.93400 46.30500 33.68700
H  41.79100 38.62500 30.31500
H  42.89000 38.90600 24.10900
H  40.69600 44.98800 23.90000
H  40.78700 42.96300 31.96100
H  39.78000 40.17800 31.74500
H  41.64600 41.41100 33.38200
H  42.57700 40.23500 32.27800
H  41.25100 39.76900 33.37400
H  37.98000 42.45900 31.45800
H  38.66600 43.37100 32.74200
H  39.06500 40.72800 33.51800
H  37.46000 40.71500 32.81600
H  43.75800 36.20700 28.69500
H  42.05100 35.94600 29.03300
H  42.98100 37.00500 30.05900
H  44.39900 35.05700 26.51300
H  43.13900 34.46100 25.26900
H  42.74200 34.89700 26.93900
H  41.71500 40.69400 22.15300
H  42.49200 43.53200 22.60600
H  44.38600 40.63600 23.18200
H  44.24800 42.13400 22.31800
H  43.78100 40.59500 21.49600
H  40.84900 42.53700 20.80200
H  40.70100 44.05800 21.48400
H  39.26600 41.80800 22.86000
H  38.56300 42.19300 21.37700
H  38.76600 43.53300 22.45600
H  40.81300 47.42600 25.23300
H  39.70300 47.84000 26.37600
H  39.09100 47.02600 24.85700
H  38.36800 45.04000 30.42500
H  39.84500 45.31900 34.14200
H  39.21300 47.03100 34.06200
H  40.94500 46.67900 33.52400


