%nproc=24
%mem=175gb
#p wB97XD/Def2SVP td=(nstates=5)

TDDFT excited states in gaussian

0 1
Mg 47.33900 34.91800 28.07800
C  45.68800 33.19800 30.68300
C  48.10100 37.44900 30.24400
C  48.24300 36.72400 25.47200
C  46.07200 32.47700 25.83700
N  47.02000 35.19800 30.25900
C  46.36000 34.38500 31.06000
C  46.67100 34.77400 32.49400
C  47.03300 36.30500 32.38100
C  47.41200 36.35800 30.85400
C  45.84200 37.21500 32.86800
C  47.88800 34.00400 33.06800
C  47.98300 33.94800 34.65600
H  46.95600 34.64300 35.55400
N  48.24300 36.70300 27.90700
C  48.56900 37.63000 28.93000
C  49.30300 38.76000 28.31400
C  49.26700 38.57700 26.88500
C  48.57000 37.29400 26.64900
C  49.93800 39.85800 29.09200
C  49.83100 39.42600 25.68000
O  49.78800 39.06500 24.49600
C  50.32700 40.81500 25.96000
N  47.07800 34.69300 25.91700
C  47.58500 35.54400 25.06500
C  47.43000 35.17200 23.61700
C  46.71000 33.78100 23.71200
C  46.68600 33.56800 25.25900
C  46.76800 36.29200 22.80900
C  47.43400 32.63900 23.01000
C  46.53900 31.60900 22.23200
N  46.16500 33.09500 28.16200
C  45.77400 32.19200 27.15400
C  45.18200 31.05300 27.76700
C  44.95200 31.44600 29.12400
C  45.59700 32.64100 29.31900
C  44.92100 29.73400 27.09800
C  44.48300 31.08700 30.48400
O  43.89600 30.09800 30.87100
C  44.73800 32.34900 31.43800
C  44.99200 31.90700 32.84200
O  45.89000 31.21500 33.22200
O  43.96300 32.32800 33.70500
C  43.67300 31.45600 34.86300
H  48.20800 38.37100 30.82000
H  48.63100 37.17100 24.55500
H  45.76300 31.70600 25.12800
H  45.78600 34.43600 33.03300
H  47.91000 36.55500 32.97900
H  44.99600 36.59900 33.17100
H  45.50600 37.70100 31.95200
H  46.07700 37.86100 33.71400
H  48.75200 34.55000 32.68700
H  47.86600 33.00400 32.63500
H  48.97800 34.33500 34.88100
H  48.01300 32.88400 34.89200
H  50.02200 39.76300 30.17400
H  49.40400 40.80200 28.98700
H  50.95300 39.89900 28.69600
H  51.37600 40.86200 26.25200
H  49.62900 41.09200 26.75100
H  50.11900 41.39300 25.06000
H  48.46800 35.04700 23.30900
H  45.69100 33.78300 23.32700
H  46.13600 36.95200 23.40400
H  46.11300 35.78300 22.10300
H  47.49100 36.91500 22.28200
H  48.02000 32.05200 23.71700
H  48.21400 33.13900 22.43600
H  45.47900 31.78000 22.41900
H  46.81500 30.64200 22.65200
H  46.65400 31.52300 21.15100
H  44.41500 29.99000 26.16700
H  44.28000 29.05700 27.66300
H  45.86600 29.26100 26.82900
H  43.79600 32.88200 31.56300
H  43.90900 32.01600 35.76800
H  44.22800 30.51800 34.82500
H  42.60300 31.25600 34.80700
Mg 25.47400 50.80800 26.36000
C  23.42800 51.77500 29.14000
C  27.78000 49.80000 28.46900
C  27.48600 50.74800 23.72700
C  22.89100 52.35600 24.24800
N  25.55500 50.75400 28.55700
C  24.64000 51.22200 29.52100
C  25.12200 51.01800 31.00700
C  26.56400 50.28500 30.68300
C  26.67300 50.24400 29.16200
C  27.79400 51.06900 31.31300
C  24.14500 50.22000 31.93900
C  24.75600 49.66700 33.22100
H  24.21600 50.30100 34.51600
N  27.35300 50.24000 26.12300
C  28.22400 49.80700 27.09500
C  29.50900 49.42000 26.55200
C  29.38500 49.70200 25.13400
C  27.97500 50.19600 24.94200
C  30.61900 48.81900 27.27800
C  30.38700 49.50900 24.00900
O  30.13300 49.66800 22.84800
C  31.78500 49.18000 24.46100
N  25.24600 51.52100 24.28400
C  26.25500 51.32600 23.39800
C  25.83300 51.76400 21.97000
C  24.32300 52.13900 22.16700
C  24.10500 51.95100 23.65600
C  26.64800 52.90800 21.27600
C  23.28700 51.29000 21.34900
C  23.20200 51.69600 19.86100
N  23.59000 51.86200 26.56100
C  22.66400 52.33500 25.66000
C  21.52300 52.77100 26.36200
C  21.75600 52.64400 27.68000
C  23.06700 52.09200 27.80400
C  20.26700 53.21900 25.62600
C  21.30400 52.86100 29.05800
O  20.28500 53.34300 29.48100
C  22.42600 52.30600 30.05900
C  23.02400 53.48800 30.75300
O  23.93000 54.23000 30.44700
O  22.33300 53.57900 31.94500
C  22.72800 54.66700 32.87100
H  28.62400 49.48900 29.08800
H  28.23800 50.84300 22.94000
H  22.18300 52.67600 23.48000
H  25.36700 52.00000 31.41200
H  26.54900 49.29900 31.14800
H  28.47500 50.35700 31.77900
H  27.60200 51.88000 32.01500
H  28.41300 51.49500 30.52400
H  23.78800 49.47000 31.23200
H  23.21100 50.69500 32.24000
H  25.83400 49.82400 33.19700
H  24.45000 48.62700 33.33100
H  30.63000 47.83900 26.80100
H  30.42700 48.80700 28.35100
H  31.61000 49.25400 27.15000
H  31.91600 48.09800 24.46700
H  32.15000 49.82600 25.26000
H  32.40300 49.70200 23.73100
H  25.75100 50.83500 21.40500
H  24.20500 53.21400 22.02900
H  26.08400 53.79400 20.98300
H  26.95200 52.49600 20.31400
H  27.50400 53.28000 21.83900
H  22.29300 51.43100 21.77200
H  23.59200 50.25400 21.50300
H  23.57200 52.71200 19.72200
H  22.15600 51.57400 19.58000
H  23.82700 51.09700 19.19800
H  19.37700 53.06800 26.23700
H  20.20500 52.68100 24.68000
H  20.36300 54.25800 25.31000
H  22.01700 51.57800 30.76000
H  21.79500 55.04700 33.28700
H  23.27800 55.48100 32.39900
H  23.31400 54.08500 33.58300


