%nproc=24
%mem=175gb
#p wB97XD/Def2SVP td=(nstates=5)

TDDFT excited states in gaussian

0 1
Mg -2.51200 34.32000 26.71000
C  -3.70600 32.37000 29.49400
C  -1.09600 36.45200 28.85600
C  -2.23500 36.47200 24.15600
C  -4.45400 32.24200 24.65700
N  -2.47200 34.41100 28.88300
C  -2.84200 33.43600 29.82500
C  -2.27900 33.77800 31.25700
C  -1.51600 35.11400 31.00700
C  -1.64900 35.32300 29.47500
C  -1.96800 36.32500 31.78300
C  -1.39500 32.57400 31.88800
C  -1.81300 32.12300 33.29300
H  -0.66900 32.23700 34.36800
N  -1.63700 36.15800 26.50500
C  -1.11000 36.89500 27.48800
C  -0.61000 38.17800 26.99100
C  -1.04200 38.20400 25.62000
C  -1.69000 36.91400 25.36100
C  0.10900 39.14600 27.82900
C  -0.90500 39.45100 24.69100
O  -1.22300 39.41800 23.51400
C  -0.35500 40.75800 25.16600
N  -3.22300 34.33100 24.76300
C  -2.85500 35.30500 23.84100
C  -3.39300 34.95800 22.41400
C  -3.78700 33.44000 22.55100
C  -3.77600 33.28900 24.07200
C  -4.45800 35.91300 21.78300
C  -2.78800 32.46000 21.87700
C  -3.33300 31.25600 21.15100
N  -3.86100 32.67700 26.98500
C  -4.55900 31.95500 26.05900
C  -5.21600 30.76800 26.76200
C  -4.86600 30.86600 28.08700
C  -4.10200 32.07900 28.18800
C  -5.97600 29.69500 26.01600
C  -4.98700 30.30300 29.42000
O  -5.62100 29.26000 29.68400
C  -4.28200 31.35300 30.46900
C  -5.23900 32.03400 31.42500
O  -6.23700 32.64900 31.00000
O  -4.96700 31.73200 32.76000
C  -6.09800 32.02100 33.63400
H  -0.51900 37.13000 29.48800
H  -2.04400 37.20300 23.36800
H  -4.93400 31.57200 23.94000
H  -3.19000 33.89300 31.84400
H  -0.52800 34.94900 31.43900
H  -2.83400 36.13100 32.41600
H  -2.36000 36.92300 30.96100
H  -1.18900 36.74500 32.42000
H  -0.38600 32.98500 31.87000
H  -1.36700 31.74700 31.17900
H  -2.21200 31.11400 33.18900
H  -2.62300 32.76200 33.64700
H  -0.25500 40.16900 27.91900
H  1.01900 39.36100 27.27000
H  0.49900 38.75500 28.76900
H  0.66500 40.53600 25.48200
H  -0.91700 41.02300 26.06200
H  -0.46600 41.44500 24.32800
H  -2.50600 35.02500 21.78400
H  -4.81400 33.23900 22.24700
H  -4.50900 36.75000 22.47900
H  -5.42000 35.44200 21.58300
H  -4.08600 36.40600 20.88400
H  -2.24500 32.16900 22.77600
H  -2.06500 32.93000 21.21000
H  -2.75000 31.18100 20.23300
H  -4.37700 31.36900 20.85700
H  -3.03100 30.39100 21.74200
H  -5.97600 29.97600 24.96300
H  -7.01700 29.73400 26.33600
H  -5.54700 28.71900 26.24200
H  -3.48200 30.82800 30.99100
H  -6.59400 31.14900 34.05800
H  -6.86800 32.64200 33.17600
H  -5.69700 32.60500 34.46200


