%nproc=24
%mem=175gb
#p wB97XD/Def2SVP td=(nstates=5)

TDDFT excited states in gaussian

0 1
Mg 46.81300 34.80600 27.83700
C  45.17600 32.79100 30.24000
C  46.71900 37.24900 30.02700
C  47.33800 36.80600 25.25700
C  46.11100 32.19400 25.53200
N  46.14800 34.85100 30.00200
C  45.62400 33.97200 30.77600
C  45.62400 34.45800 32.24000
C  45.67300 36.06300 32.08800
C  46.14500 36.09800 30.57500
C  44.31800 36.83800 32.33200
C  46.95000 33.94900 33.01300
C  46.90000 33.61900 34.54000
H  45.84300 34.41700 35.38900
N  47.21100 36.73800 27.68900
C  47.17400 37.59200 28.78100
C  47.54700 38.97300 28.31200
C  47.76600 38.81400 26.88000
C  47.45200 37.44200 26.47200
C  47.57300 40.14900 29.27000
C  48.24400 39.87200 25.91000
O  48.37500 39.70100 24.69000
C  48.62100 41.19700 26.43700
N  46.83600 34.49900 25.62400
C  47.04000 35.53300 24.82800
C  47.32500 35.03100 23.34300
C  46.87400 33.47700 23.48000
C  46.62500 33.36900 24.98200
C  46.58500 35.85900 22.24100
C  47.86700 32.37700 22.98000
C  47.46400 31.59700 21.75500
N  46.03500 32.76500 27.86100
C  45.83400 31.87700 26.82300
C  45.15900 30.73800 27.28800
C  44.84600 31.07700 28.61800
C  45.34900 32.31400 28.94500
C  44.79200 29.55000 26.55100
C  44.25600 30.51400 29.77000
O  43.77000 29.39300 30.08200
C  44.20600 31.72700 30.80400
C  44.55000 31.25500 32.16900
O  45.61400 30.77700 32.55700
O  43.43700 31.56400 33.01300
C  43.54100 31.17800 34.42600
H  46.79200 37.98600 30.83000
H  47.57400 37.46800 24.42200
H  45.97100 31.36600 24.83300
H  44.62300 34.28200 32.63300
H  46.32300 36.45800 32.86800
H  43.46200 36.16400 32.35700
H  44.09900 37.53000 31.51900
H  44.43400 37.33900 33.29300
H  47.78200 34.63400 32.84900
H  47.31500 33.05900 32.50000
H  47.84900 33.77500 35.05400
H  46.48500 32.61400 34.62600
H  48.46100 40.76800 29.13700
H  47.51700 39.85100 30.31700
H  46.63300 40.69500 29.19400
H  47.78800 41.66200 26.96500
H  48.94200 41.84200 25.61900
H  49.47200 41.20900 27.11800
H  48.38800 35.01100 23.10300
H  45.86800 33.30600 23.09400
H  45.91300 36.58500 22.69900
H  46.15500 35.05600 21.64200
H  47.35600 36.29200 21.60500
H  47.98100 31.65400 23.78800
H  48.84800 32.82300 22.81500
H  46.58600 32.13300 21.39700
H  47.14500 30.60700 22.08300
H  48.21600 31.60800 20.96700
H  45.69700 29.19600 26.05800
H  44.17700 29.70800 25.66500
H  44.42700 28.78900 27.24100
H  43.19600 32.13800 30.79400
H  42.60700 31.38000 34.95100
H  44.23500 31.85900 34.91900
H  43.73000 30.10700 34.49100
Mg -9.42700 40.51200 41.96000
C  -8.27600 37.27100 41.01300
C  -7.18900 41.70700 39.82100
C  -11.06300 43.46900 41.99400
C  -12.24300 38.82400 43.34600
N  -7.88600 39.63200 40.71800
C  -7.50800 38.28500 40.52900
C  -6.30600 38.11700 39.54700
C  -5.96100 39.60100 39.23600
C  -7.01600 40.39000 40.04000
C  -4.48700 39.82100 39.61500
C  -6.54600 37.26600 38.22600
C  -5.77300 35.95800 38.10300
H  -4.88600 35.77200 36.85500
N  -9.14300 42.33400 41.14400
C  -8.11800 42.62800 40.24500
C  -8.09400 44.00500 39.95700
C  -9.10700 44.61100 40.67700
C  -9.83500 43.52300 41.29800
C  -7.10100 44.80200 39.03200
C  -9.33100 46.10500 40.68600
O  -8.59600 46.89800 40.17700
C  -10.57800 46.61100 41.56500
N  -11.40100 41.07400 42.51100
C  -11.80600 42.38000 42.46200
C  -13.34000 42.40200 42.85400
C  -13.69600 41.00800 43.39700
C  -12.37200 40.22400 43.05500
C  -13.75900 43.56700 43.70500
C  -14.84900 40.42700 42.58800
C  -15.68100 39.35600 43.24200
N  -10.03000 38.45700 42.37900
C  -11.16900 37.95500 42.96200
C  -11.08800 36.54300 43.06100
C  -9.91600 36.15600 42.36900
C  -9.38800 37.38300 41.87700
C  -12.09900 35.62000 43.61300
C  -9.03800 35.08300 41.88300
O  -9.11400 33.86600 42.09900
C  -7.91300 35.74600 40.99900
C  -6.65000 35.63000 41.67800
O  -6.37600 36.35300 42.66500
O  -5.96400 34.63500 41.08200
C  -4.53900 34.42700 41.45900
H  -6.43900 42.13800 39.15400
H  -11.53000 44.45500 42.04300
H  -13.01900 38.25900 43.86600
H  -5.46700 37.65700 40.06900
H  -6.10300 39.87100 38.19000
H  -4.30300 40.89300 39.55000
H  -3.75300 39.31500 38.98800
H  -4.26800 39.50000 40.63400
H  -6.11700 37.88500 37.43800
H  -7.61400 37.12100 38.06300
H  -6.50000 35.14700 38.15800
H  -5.08700 35.86800 38.94600
H  -7.73100 45.35500 38.33500
H  -6.44100 44.13800 38.47400
H  -6.37700 45.43500 39.54500
H  -10.52000 47.69900 41.55500
H  -10.39300 46.15100 42.53600
H  -11.42100 46.18000 41.02500
H  -13.83700 42.54600 41.89400
H  -13.95800 40.94300 44.45300
H  -14.59900 43.25300 44.32400
H  -14.03900 44.35800 43.00900
H  -12.95300 44.01500 44.28500
H  -14.53800 40.03800 41.61800
H  -15.54600 41.19600 42.25500
H  -15.47900 39.25300 44.30800
H  -15.45200 38.41100 42.74900
H  -16.73600 39.48600 43.00100
H  -12.69800 36.09600 44.39000
H  -11.53400 34.78400 44.02600
H  -12.74800 35.36800 42.77400
H  -7.89000 35.41100 39.96200
H  -4.47300 33.34300 41.35500
H  -4.28400 34.79600 42.45200
H  -3.86400 34.76500 40.67200


