%nproc=24
%mem=175gb
#p wB97XD/Def2SVP td=(nstates=5)

TDDFT excited states in gaussian

0 1
Mg 8.37300 3.02000 27.58300
C  9.66800 1.59900 30.62700
C  6.70500 5.26800 29.53700
C  6.93600 4.14100 24.76700
C  9.73100 0.40000 25.89700
N  8.26000 3.41400 29.92600
C  8.92300 2.70600 30.88600
C  8.72800 3.42100 32.16900
C  7.67000 4.51900 31.87000
C  7.43900 4.42400 30.33700
C  6.33800 4.27100 32.64700
C  9.97700 3.96400 32.81700
C  9.90300 4.49900 34.23800
H  10.91500 4.00800 35.18600
N  7.11500 4.54900 27.20100
C  6.43400 5.32900 28.17600
C  5.69100 6.36700 27.43700
C  5.70300 5.96800 26.10300
C  6.57300 4.78400 25.98300
C  4.94900 7.46900 28.16400
C  5.04400 6.62700 24.87200
O  4.92600 6.07300 23.76300
C  4.55800 8.00900 25.03700
N  8.26900 2.33700 25.58000
C  7.65300 2.93000 24.57800
C  7.79400 2.17100 23.23000
C  8.87800 1.15300 23.59100
C  9.00200 1.33000 25.08700
C  6.44500 1.50000 22.80300
C  10.20800 1.29100 22.88500
C  10.86600 -0.01000 22.39200
N  9.53800 1.41400 28.13000
C  10.02500 0.42800 27.30000
C  10.88100 -0.54000 28.05000
C  10.69600 -0.06300 29.33200
C  9.85900 1.05900 29.36100
C  11.78700 -1.59900 27.50900
C  11.07900 -0.33300 30.71000
O  11.83900 -1.20400 31.11800
C  10.43500 0.73200 31.62700
C  9.77600 0.01400 32.68800
O  8.68700 -0.60500 32.61700
O  10.41500 0.23000 33.87100
C  9.76200 -0.17400 35.09700
H  6.23400 6.04600 30.14100
H  6.34700 4.39700 23.88400
H  9.91800 -0.50400 25.31400
H  8.28800 2.65400 32.80500
H  8.01700 5.51600 32.14200
H  5.84500 5.03100 33.25400
H  6.57700 3.45100 33.32400
H  5.53900 3.81600 32.06100
H  10.35300 4.83500 32.28000
H  10.84000 3.32300 32.63900
H  8.94300 4.25600 34.69100
H  10.21000 5.54200 34.16500
H  3.93400 7.63800 27.80500
H  5.45900 8.43200 28.14900
H  4.76300 7.27700 29.22100
H  5.36300 8.60800 25.46300
H  3.75000 7.88400 25.75700
H  4.37900 8.39200 24.03300
H  8.13900 2.90800 22.50400
H  8.61200 0.10400 23.46400
H  6.50600 0.41300 22.84700
H  6.19800 1.73200 21.76700
H  5.70700 1.85800 23.52100
H  10.93600 1.82600 23.49400
H  10.03500 2.08200 22.15600
H  11.47800 0.25700 21.53100
H  10.15100 -0.81800 22.23400
H  11.45900 -0.28500 23.26400
H  12.83900 -1.31500 27.47600
H  11.33000 -1.91300 26.57100
H  11.63300 -2.52100 28.07100
H  11.28200 1.20800 32.12100
H  8.73800 -0.52700 34.97200
H  9.83700 0.61100 35.84900
H  10.27900 -1.00300 35.58100
Mg 35.26200 1.75200 29.96200
C  32.85500 2.58300 32.32000
C  37.64200 1.80100 32.35100
C  37.51600 1.12500 27.56800
C  32.74800 1.88400 27.52800
N  35.16600 2.13300 32.11400
C  34.11900 2.35200 32.87300
C  34.63200 2.45300 34.38300
C  36.03300 2.95200 34.09900
C  36.35200 2.21400 32.76000
C  36.05200 4.49500 34.04900
C  34.37500 1.08800 35.15500
C  34.37600 1.20900 36.68200
H  34.84400 2.50900 37.31300
N  37.24000 1.32700 29.98300
C  38.04600 1.32500 31.11900
C  39.36800 0.74800 30.73100
C  39.37200 0.59900 29.27900
C  38.02100 1.10700 28.92100
C  40.46600 0.47300 31.73100
C  40.47100 0.00700 28.28100
O  40.29400 -0.12300 27.06500
C  41.78300 -0.42500 28.90200
N  35.17700 1.65000 27.89700
C  36.22800 1.39600 27.12200
C  35.89000 1.47100 25.60100
C  34.35600 1.46600 25.66700
C  34.03700 1.61900 27.12100
C  36.49900 2.69400 24.86000
C  33.56700 0.32100 24.88900
C  33.00100 -0.79800 25.70000
N  33.26100 2.34500 29.84600
C  32.36300 2.28700 28.83400
C  31.06300 2.71100 29.21500
C  31.19600 2.84400 30.63300
C  32.52400 2.60100 30.90000
C  29.78600 2.98300 28.46300
C  30.54600 3.13100 31.87700
O  29.40100 3.42500 32.14500
C  31.52900 2.83000 33.05300
C  31.55800 3.97100 33.97300
O  31.92600 5.08300 33.62600
O  30.95500 3.71000 35.23000
C  30.85200 4.85600 36.14700
H  38.39100 1.89200 33.13900
H  38.28200 0.96200 26.80800
H  32.00200 1.96400 26.73500
H  34.02600 3.17400 34.93000
H  36.78800 2.59500 34.79900
H  36.64600 4.74400 34.92900
H  35.05700 4.93600 34.12200
H  36.63900 4.75700 33.16900
H  35.14200 0.35900 34.89200
H  33.36400 0.79400 34.87200
H  34.98900 0.39000 37.05700
H  33.35800 1.00500 37.01300
H  40.05900 0.17200 32.69700
H  41.18400 1.27200 31.91300
H  41.03100 -0.39400 31.38900
H  42.08900 0.44800 29.47800
H  42.58200 -0.61900 28.18700
H  41.63400 -1.33400 29.48500
H  36.25600 0.59300 25.06900
H  34.05000 2.44500 25.30000
H  35.69900 3.06000 24.21600
H  37.40400 2.52000 24.28000
H  36.80800 3.41800 25.61400
H  34.19600 -0.03500 24.07300
H  32.66800 0.75100 24.44800
H  31.91500 -0.71000 25.66100
H  33.14600 -0.73200 26.77900
H  33.24300 -1.79400 25.32900
H  29.91400 2.90200 27.38300
H  29.37400 3.93500 28.79900
H  28.98400 2.25500 28.58700
H  31.23100 1.94400 33.61300
H  30.55000 4.60700 37.16400
H  30.10200 5.48600 35.66800
H  31.81400 5.36300 36.08200


