%nproc=24
%mem=175gb
#p wB97XD/Def2SVP td=(nstates=5)

TDDFT excited states in gaussian

0 1
Mg 3.63500 0.41800 44.38500
C  6.38200 2.41600 44.15700
C  1.85600 2.91600 42.76500
C  1.03400 -1.70200 44.27100
C  5.65900 -2.27700 45.39800
N  4.15300 2.34100 43.32400
C  5.35700 2.93700 43.43600
C  5.44100 4.20100 42.66100
C  3.82600 4.53100 42.53700
C  3.19500 3.17000 42.89900
C  3.38200 5.72400 43.43400
C  6.08500 3.93300 41.31000
C  5.45900 2.81500 40.35400
H  5.36900 3.04800 38.85100
N  1.72200 0.57100 43.63100
C  1.11700 1.74400 43.11300
C  -0.27500 1.47100 42.97900
C  -0.55500 0.16000 43.34400
C  0.72000 -0.40500 43.81700
C  -1.17200 2.58100 42.47000
C  -1.87000 -0.57100 43.21500
O  -2.81800 0.09700 42.73200
C  -2.07300 -1.97000 43.39000
N  3.45400 -1.75300 44.57800
C  2.23500 -2.36400 44.54600
C  2.35900 -3.87900 44.83600
C  3.87500 -4.03200 45.19700
C  4.39100 -2.62000 44.97700
C  1.41200 -4.36800 45.91100
C  4.59000 -5.14900 44.26500
C  5.56000 -6.06500 45.02000
N  5.66900 0.04500 44.75000
C  6.32000 -0.99300 45.33600
C  7.63200 -0.52000 45.68500
C  7.75100 0.85800 45.29200
C  6.52700 1.13100 44.70400
C  8.77000 -1.38000 46.11700
C  8.57600 2.01500 45.15500
O  9.73800 2.10000 45.57200
C  7.71800 3.05600 44.46000
C  7.61900 4.24800 45.33700
O  8.63700 4.80700 45.69500
O  6.34700 4.66100 45.59200
C  6.23700 5.85100 46.43800
H  1.24500 3.78600 42.51600
H  0.13600 -2.29700 44.44900
H  6.31200 -3.00800 45.88000
H  6.00100 5.03200 43.09000
H  3.58600 4.93100 41.55100
H  2.93500 6.50500 42.82000
H  4.28700 6.13300 43.88400
H  2.70200 5.45700 44.24400
H  7.14700 3.76700 41.49200
H  6.12500 4.93200 40.87600
H  4.43400 2.52000 40.57900
H  6.17000 1.99900 40.48000
H  -1.10900 2.52700 41.38300
H  -0.76100 3.53900 42.78600
H  -2.21500 2.54500 42.78600
H  -2.88500 -2.34300 42.76500
H  -2.15000 -2.27300 44.43500
H  -1.20000 -2.43300 42.93200
H  2.14200 -4.33200 43.86800
H  3.97500 -4.21900 46.26600
H  0.70500 -3.61400 46.25600
H  1.77700 -4.91000 46.78300
H  0.73700 -5.01500 45.35000
H  5.15900 -4.73200 43.43400
H  3.86400 -5.76700 43.73700
H  5.09600 -7.04700 45.10800
H  5.65500 -5.69200 46.04000
H  6.52700 -6.16100 44.52600
H  8.71100 -1.83500 47.10500
H  9.65100 -0.74100 46.04600
H  8.91100 -2.23600 45.45700
H  8.25000 3.32500 43.54700
H  6.78900 6.65600 45.95200
H  6.55900 5.68400 47.46600
H  5.19100 6.09800 46.61900
Mg 34.81300 49.43200 25.14500
C  35.01600 47.65700 28.22400
C  33.32400 52.02800 26.83800
C  34.65200 50.90000 22.18900
C  35.90600 46.46600 23.43400
N  34.14900 49.79800 27.34500
C  34.46100 48.93800 28.38200
C  33.98800 49.65100 29.69500
C  33.38500 51.08500 29.24000
C  33.61700 50.95700 27.73100
C  31.94200 51.39000 29.69300
C  35.01900 49.70600 30.89700
C  34.55900 49.07300 32.17800
H  33.11300 48.96700 32.58500
N  34.17200 51.35300 24.58700
C  33.58900 52.24400 25.43200
C  33.45200 53.46600 24.68200
C  33.72500 53.14400 23.33500
C  34.19500 51.72200 23.26900
C  32.90900 54.73200 25.36600
C  33.46900 53.99900 22.13100
O  33.64100 53.56300 20.96800
C  32.94500 55.37500 22.31400
N  35.18300 48.68800 23.08400
C  35.11600 49.51200 22.09700
C  35.57200 48.95700 20.64400
C  35.95000 47.52900 21.06600
C  35.68700 47.53300 22.55200
C  34.36900 49.06600 19.63700
C  37.40800 47.05400 20.73300
C  38.54700 47.67100 21.57900
N  35.21400 47.49800 25.67400
C  35.61800 46.42200 24.84900
C  35.92400 45.27900 25.72000
C  35.71000 45.72300 27.04700
C  35.31700 47.10200 26.97200
C  36.42700 43.88500 25.23900
C  35.78900 45.30100 28.34400
O  36.05400 44.22400 28.83800
C  35.40700 46.52600 29.22100
C  34.34200 46.13400 30.11500
O  33.13700 46.19100 29.84500
O  34.87800 45.46700 31.22300
C  33.86400 44.85200 32.11500
H  32.63300 52.79500 27.19500
H  34.43900 51.33900 21.21200
H  36.24500 45.54000 22.96500
H  33.26200 48.90600 30.01800
H  33.96500 51.87500 29.71500
H  31.90300 52.32700 30.25000
H  31.43700 50.62000 30.27600
H  31.39300 51.49300 28.75700
H  35.30500 50.73900 31.09600
H  35.87800 49.12400 30.56300
H  34.83800 49.76200 32.97600
H  35.03100 48.09400 32.25300
H  32.96100 54.66600 26.45300
H  31.87600 54.89800 25.06300
H  33.55400 55.53200 25.00400
H  33.66100 55.90400 22.94300
H  31.99400 55.37100 22.84800
H  32.75700 55.84600 21.35000
H  36.44300 49.49500 20.26900
H  35.19100 46.83200 20.71000
H  33.44700 48.97400 20.21100
H  34.41800 48.21400 18.95800
H  34.29100 49.96700 19.02800
H  37.57700 47.10800 19.65800
H  37.43700 45.97400 20.87400
H  38.40300 48.69400 21.92500
H  39.48100 47.54600 21.03000
H  38.64300 47.01100 22.44100
H  37.30600 43.53600 25.78100
H  36.62200 43.84300 24.16800
H  35.74400 43.11800 25.60500
H  36.33300 46.69700 29.76900
H  33.38300 44.00700 31.62300
H  33.04700 45.51600 32.39500
H  34.36200 44.67800 33.06900


