%nproc=24
%mem=175gb
#p wB97XD/Def2SVP td=(nstates=5)

TDDFT excited states in gaussian

0 1
Mg 40.54200 8.71200 29.57000
C  42.46900 10.35300 31.83700
C  38.24000 7.70200 31.93300
C  38.87500 6.96300 27.14400
C  43.10200 9.33000 27.08900
N  40.50700 8.83000 31.66000
C  41.28100 9.79100 32.39300
C  40.70700 10.01900 33.73400
C  39.62800 8.84800 33.81600
C  39.41100 8.39300 32.39000
C  40.09700 7.61800 34.74300
C  40.24300 11.48300 34.00600
C  40.64100 12.04200 35.33400
H  40.55300 11.05000 36.56000
N  38.75400 7.55700 29.53000
C  38.00600 7.28200 30.63600
C  36.89200 6.50300 30.21600
C  36.97400 6.32300 28.78000
C  38.23000 7.03300 28.36500
C  35.87900 5.90900 31.21900
C  36.08100 5.65900 27.77900
O  36.28700 5.46300 26.57600
C  34.68000 5.19900 28.33400
N  40.98100 8.10600 27.39000
C  40.09800 7.49500 26.64000
C  40.46000 7.54300 25.15700
C  41.81600 8.30500 25.16100
C  42.00400 8.59400 26.64900
C  40.56900 6.08800 24.47000
C  41.66000 9.63200 24.29500
C  40.74000 10.78700 24.76200
N  42.48900 9.50900 29.49800
C  43.34000 9.72700 28.43100
C  44.44800 10.55700 28.94600
C  44.20300 10.86700 30.25000
C  42.96700 10.18300 30.54000
C  45.69600 10.84800 28.18600
C  44.66700 11.56800 31.44700
O  45.66700 12.23600 31.65000
C  43.53700 11.23400 32.51700
C  44.17900 10.46300 33.60100
O  44.82400 9.40400 33.50900
O  43.90700 11.19500 34.73900
C  44.28800 10.53200 35.99300
H  37.46200 7.40700 32.64000
H  38.23300 6.48700 26.39900
H  43.84700 9.59300 26.33600
H  41.53500 9.82500 34.41700
H  38.70200 9.27400 34.20100
H  40.95100 7.85100 35.37900
H  40.49700 6.86600 34.06300
H  39.17400 7.30300 35.22800
H  39.15600 11.54000 33.94800
H  40.73700 12.04000 33.21000
H  39.99600 12.85500 35.66500
H  41.60800 12.52200 35.48500
H  35.14900 6.60800 31.62700
H  36.53200 5.46300 31.96900
H  35.20300 5.18600 30.76300
H  34.82100 4.32000 28.96300
H  33.98600 5.15200 27.49500
H  34.17100 5.96300 28.92200
H  39.71300 8.14400 24.63900
H  42.64100 7.73100 24.73900
H  39.67900 5.98600 23.84800
H  40.55600 5.31000 25.23400
H  41.39700 5.86900 23.79700
H  41.39900 9.47200 23.24900
H  42.67000 10.03800 24.36000
H  41.45000 11.59500 24.93900
H  40.14900 10.52600 25.63900
H  40.01100 11.10100 24.01500
H  45.97000 11.83700 28.55200
H  45.54800 10.83600 27.10600
H  46.48500 10.23100 28.61400
H  43.32700 12.24400 32.86800
H  44.09900 11.31400 36.72900
H  45.36500 10.37600 35.93100
H  43.84100 9.55300 36.16700
Mg 53.43000 23.68000 44.03900
C  50.60500 25.72200 43.59200
C  51.43200 20.92900 43.52700
C  56.21400 21.92200 43.71600
C  55.42100 26.61100 44.29000
N  51.34600 23.39300 43.36500
C  50.33600 24.38200 43.24300
C  48.97800 23.81200 43.21200
C  49.26700 22.25100 43.29300
C  50.77800 22.16700 43.44100
C  48.41400 21.54400 44.37400
C  48.22300 24.06100 41.94200
C  49.03400 24.02900 40.63800
H  48.41800 23.46200 39.30000
N  53.81600 21.66600 43.70400
C  52.86000 20.71900 43.65000
C  53.50000 19.42800 43.60900
C  54.89000 19.67000 43.73700
C  55.04900 21.13300 43.75700
C  52.80700 18.10400 43.43000
C  55.97700 18.59900 43.82300
O  55.69800 17.41700 43.77300
C  57.46200 18.80800 43.85800
N  55.50100 24.20200 43.75000
C  56.49500 23.26200 43.68900
C  57.90500 23.90500 43.90100
C  57.59200 25.42600 43.76600
C  56.09200 25.42600 43.96400
C  58.57700 23.60200 45.26200
C  57.80600 26.06200 42.31200
C  58.53500 27.35500 42.24600
N  53.14400 25.68200 44.06800
C  53.99400 26.67600 44.35900
C  53.22600 27.91400 44.76200
C  51.87400 27.51900 44.50800
C  51.89200 26.20900 43.95100
C  53.71800 29.26500 45.26100
C  50.53800 28.03700 44.44100
O  50.10500 29.15300 44.68100
C  49.65300 26.85900 43.86500
C  49.16300 27.30200 42.50200
O  49.80500 27.46200 41.51700
O  47.78800 27.38800 42.55400
C  47.15600 27.52600 41.23800
H  50.76800 20.06300 43.56200
H  57.13800 21.34600 43.78900
H  56.08600 27.44900 44.50900
H  48.42400 24.23500 44.05000
H  49.15700 21.69500 42.36200
H  48.03700 20.69600 43.80200
H  47.64400 22.25100 44.68300
H  49.00900 21.15600 45.20100
H  47.55300 24.92000 41.98700
H  47.44900 23.32600 41.72000
H  49.94100 23.47800 40.88900
H  49.32900 25.07300 40.53100
H  53.31800 17.49200 42.68600
H  51.75400 18.26600 43.20000
H  52.89400 17.62800 44.40700
H  57.89700 19.23300 42.95400
H  57.81600 17.77700 43.85100
H  57.81900 19.19500 44.81300
H  58.56100 23.52900 43.11600
H  58.08000 26.03800 44.52500
H  58.61900 24.52500 45.84000
H  59.48300 23.00800 45.14300
H  57.92700 22.93400 45.82600
H  56.85800 26.15700 41.78300
H  58.38300 25.30400 41.78200
H  59.40900 27.31900 41.59600
H  58.83900 27.73400 43.22200
H  57.92000 28.14400 41.81400
H  53.34500 30.00700 44.55500
H  54.79200 29.18400 45.43300
H  53.17000 29.44900 46.18500
H  48.82700 26.60000 44.52700
H  47.72400 27.04800 40.44000
H  47.12200 28.60500 41.08700
H  46.11800 27.22500 41.37700


