%nproc=24
%mem=175gb
#p wB97XD/Def2SVP td=(nstates=5)

TDDFT excited states in gaussian

0 1
Mg 1.27700 7.97600 26.81300
C  1.70500 10.25900 29.27500
C  1.82700 5.41400 29.09300
C  0.85500 5.69300 24.34900
C  1.21800 10.51800 24.46400
N  1.59300 7.92000 28.89400
C  1.77500 8.96200 29.74400
C  1.81600 8.52800 31.18600
C  2.13100 6.98700 31.08800
C  1.79700 6.74800 29.57900
C  3.53500 6.42400 31.56400
C  0.41400 8.75400 31.91200
C  0.55800 8.89600 33.45600
H  1.71800 8.24400 34.22700
N  1.40400 5.81900 26.67300
C  1.63700 4.96400 27.78200
C  1.59900 3.60000 27.34800
C  1.32800 3.64600 25.93400
C  1.17100 5.11200 25.62400
C  1.72200 2.42000 28.24700
C  1.18400 2.49900 24.94000
O  1.05900 2.62000 23.68600
C  1.20700 1.06700 25.44700
N  1.13600 8.07200 24.71300
C  0.77100 6.99400 23.90500
C  0.28500 7.38700 22.48000
C  0.38900 9.00800 22.61900
C  0.90800 9.24400 23.99000
C  1.23400 6.77600 21.44100
C  -0.88200 9.73900 22.30100
C  -0.72400 10.77600 21.22600
N  1.52400 9.91600 26.73700
C  1.45400 10.87900 25.73800
C  1.65900 12.16800 26.28700
C  1.81400 12.01500 27.69100
C  1.62000 10.64100 27.94600
C  1.67300 13.48200 25.60500
C  2.15100 12.69400 28.92300
O  2.45500 13.83200 29.22300
C  2.00700 11.52600 30.01000
C  3.06400 11.59000 31.05300
O  4.23800 11.79300 30.87600
O  2.59100 11.43200 32.29900
C  3.63300 11.47700 33.36400
H  2.18200 4.70500 29.84400
H  0.85400 4.95200 23.54700
H  1.09900 11.38200 23.80700
H  2.67100 8.94100 31.72100
H  1.35600 6.44600 31.63000
H  4.07900 7.25400 32.01500
H  4.16900 5.94900 30.81700
H  3.32200 5.63000 32.28000
H  -0.18400 7.89400 31.61000
H  -0.01700 9.66700 31.50100
H  -0.39200 8.49700 33.81200
H  0.49500 9.96300 33.66800
H  0.81200 2.12400 28.76900
H  2.52200 2.67200 28.94200
H  2.18600 1.56000 27.76500
H  2.26000 0.80200 25.54100
H  0.75700 0.48100 24.64600
H  0.71900 0.92900 26.41200
H  -0.69500 6.92500 22.36000
H  1.13100 9.36700 21.90500
H  2.13800 6.31200 21.83600
H  1.41900 7.51100 20.65800
H  0.69100 5.93800 21.00300
H  -1.27500 10.30600 23.14500
H  -1.71400 9.09900 22.00700
H  -1.48700 10.70900 20.45100
H  0.24000 10.68600 20.72600
H  -0.68400 11.71900 21.77200
H  2.02800 13.48300 24.57400
H  2.51200 13.99500 26.07600
H  0.69500 13.95600 25.68900
H  1.08300 11.88900 30.46100
H  3.95200 12.49700 33.58300
H  4.44500 10.77600 33.17000
H  3.18800 11.10700 34.28800
Mg 46.81700 25.04400 28.06300
C  47.43500 27.22400 30.70400
C  46.22200 22.54500 30.24300
C  46.68300 22.91500 25.44100
C  47.91200 27.51000 25.91600
N  46.85500 24.93200 30.27600
C  46.92700 25.99900 31.13500
C  46.69200 25.55600 32.52900
C  46.35500 24.06200 32.46000
C  46.45000 23.76800 30.90100
C  47.14000 23.08900 33.32600
C  45.54800 26.46400 33.25900
C  45.96500 27.28000 34.50500
H  45.04500 27.40000 35.69500
N  46.38000 23.04600 27.85500
C  46.17200 22.14900 28.89200
C  45.97200 20.84900 28.36300
C  46.10600 20.92300 26.95000
C  46.38200 22.34000 26.69200
C  45.54700 19.69500 29.35300
C  46.04800 19.73200 25.99500
O  46.24200 19.78300 24.77100
C  45.65900 18.41400 26.50400
N  47.46200 25.07000 25.97900
C  47.20100 24.13500 25.08900
C  47.75300 24.52400 23.69900
C  47.64000 26.09100 23.86200
C  47.64600 26.26000 25.37800
C  49.21100 24.11600 23.27000
C  46.37000 26.80300 23.19000
C  45.02600 26.38600 23.62800
N  47.60700 27.03800 28.18700
C  48.00800 27.95100 27.19200
C  48.42700 29.16900 27.80900
C  48.29400 28.93400 29.16300
C  47.68500 27.64800 29.33600
C  49.11900 30.26800 27.16400
C  48.30700 29.55700 30.40200
O  48.64500 30.69400 30.74700
C  47.85400 28.48300 31.49300
C  49.08400 28.17700 32.28200
O  50.16500 27.73400 31.95500
O  48.78800 28.53400 33.53300
C  49.86000 28.29900 34.55500
H  45.83500 21.89200 31.02800
H  46.47600 22.23000 24.61700
H  48.19300 28.30200 25.21900
H  47.64500 25.71200 33.03300
H  45.30400 23.92600 32.71400
H  47.87300 22.82100 32.56600
H  46.56600 22.26800 33.75600
H  47.69200 23.45800 34.19000
H  44.70400 25.82300 33.51200
H  45.17000 27.27500 32.63600
H  46.05600 28.31300 34.16800
H  46.96700 27.02300 34.84600
H  46.22400 18.85300 29.21000
H  44.59100 19.46800 28.88100
H  45.60100 19.88500 30.42500
H  46.32300 18.09200 27.30500
H  45.94900 17.70600 25.72800
H  44.60000 18.29800 26.73600
H  46.98600 24.30500 22.95600
H  48.53000 26.46300 23.35500
H  49.97100 24.18900 24.04700
H  49.40300 24.79200 22.43600
H  49.23500 23.08400 22.91900
H  46.32700 26.67600 22.10800
H  46.28900 27.84300 23.50600
H  44.88500 26.94500 24.55200
H  44.84400 25.33800 23.86800
H  44.17200 26.64500 23.00300
H  50.15800 29.93700 27.14300
H  49.06200 31.22600 27.68000
H  48.71000 30.52400 26.18600
H  47.00000 28.80500 32.08900
H  49.50700 27.43600 35.12000
H  49.99000 29.19400 35.16300
H  50.84800 28.01700 34.19000


