%nproc=24
%mem=175gb
#p wB97XD/Def2SVP td=(nstates=5)

TDDFT excited states in gaussian

0 1
Mg 1.29600 7.71300 26.88100
C  1.46900 9.82700 29.67000
C  2.42600 5.06900 28.94700
C  1.47300 5.72500 24.13400
C  0.92500 10.50000 24.87700
N  1.69900 7.49100 29.04900
C  1.51500 8.49600 30.00300
C  1.43800 7.84300 31.43000
C  1.83300 6.38800 31.15200
C  2.05200 6.30500 29.60100
C  3.12000 6.01700 31.93700
C  0.04000 8.06800 31.99300
C  -0.12000 8.13500 33.50300
H  1.05800 7.66300 34.38500
N  1.84800 5.68100 26.53500
C  2.31100 4.77600 27.50900
C  2.63500 3.49600 26.90400
C  2.31300 3.59100 25.49300
C  1.87500 5.04400 25.33500
C  3.03900 2.24400 27.69300
C  2.37500 2.55400 24.38800
O  2.03400 2.84400 23.24900
C  2.64700 1.14500 24.75200
N  1.13700 8.09300 24.78900
C  1.15400 7.08500 23.87300
C  0.77800 7.64200 22.47500
C  0.53200 9.18300 22.70900
C  0.76500 9.29400 24.23800
C  1.89300 7.33600 21.45900
C  -0.89600 9.67800 22.35700
C  -0.86300 10.38200 21.00400
N  1.30900 9.79300 27.10700
C  1.22300 10.82400 26.23200
C  1.50800 12.06900 26.98600
C  1.50300 11.75700 28.31400
C  1.42300 10.34100 28.32600
C  1.55300 13.42200 26.29600
C  1.55800 12.26300 29.69200
O  1.68500 13.41500 30.08900
C  1.44800 11.03500 30.57500
C  2.56000 11.13900 31.53300
O  3.76600 10.89700 31.38900
O  2.04800 11.65700 32.70500
C  2.99200 11.90900 33.77200
H  2.69600 4.26200 29.63100
H  1.45200 4.99400 23.32300
H  0.89300 11.33000 24.16800
H  2.21800 8.40600 31.94400
H  1.06000 5.77700 31.61800
H  4.00400 5.85500 31.32000
H  2.97100 4.99800 32.29300
H  3.38200 6.77100 32.67900
H  -0.56100 7.28300 31.53300
H  -0.37400 8.97400 31.55200
H  -1.02500 7.59600 33.78000
H  -0.31800 9.19800 33.64500
H  3.22100 2.42800 28.75200
H  3.95300 1.82100 27.27400
H  2.28900 1.47200 27.52500
H  1.81900 0.77800 25.35900
H  3.66100 1.02700 25.13400
H  2.61600 0.48900 23.88200
H  -0.10600 7.10300 22.13500
H  1.34500 9.68200 22.18000
H  2.33200 8.19000 20.94400
H  1.31000 6.77100 20.73200
H  2.77000 6.84600 21.88100
H  -1.17200 10.51700 22.99600
H  -1.64500 8.88600 22.34300
H  -1.71200 9.95300 20.47200
H  -0.02300 10.09700 20.37100
H  -0.94100 11.46900 21.03900
H  1.59500 13.38900 25.20700
H  2.38500 14.03800 26.63500
H  0.58900 13.91000 26.44400
H  0.47700 11.06900 31.06800
H  3.81000 12.49700 33.35500
H  3.40600 11.00100 34.21100
H  2.51900 12.68100 34.37800
Mg -9.66500 18.33400 42.78400
C  -6.24000 17.80500 42.49600
C  -9.09900 21.67600 42.05300
C  -12.91200 18.87400 42.48300
C  -10.14800 14.91400 43.00500
N  -7.91600 19.56100 42.17100
C  -6.59800 19.16200 42.25800
C  -5.63300 20.29600 42.07600
C  -6.57300 21.55800 42.31900
C  -7.95100 20.93600 42.13600
C  -6.37100 22.54100 43.56800
C  -4.81400 20.28500 40.70300
C  -5.51800 19.69700 39.44400
H  -5.27900 20.48100 38.17600
N  -10.85700 20.01500 42.21400
C  -10.42000 21.32200 41.96500
C  -11.51000 22.18000 41.58900
C  -12.66600 21.36900 41.68400
C  -12.20600 20.01400 42.11100
C  -11.29500 23.68900 41.46200
C  -14.07900 21.93000 41.40500
O  -14.25800 23.08100 40.99400
C  -15.20100 21.03000 41.71200
N  -11.24800 17.01300 42.63400
C  -12.52300 17.52900 42.79400
C  -13.59000 16.43700 43.02800
C  -12.64200 15.17100 42.94600
C  -11.28500 15.70200 42.80600
C  -14.41600 16.47100 44.27500
C  -12.97300 14.21900 41.68800
C  -13.02000 12.77100 42.10100
N  -8.45700 16.64500 42.95800
C  -8.80300 15.30900 43.04100
C  -7.58100 14.47400 43.08900
C  -6.53000 15.43300 42.87800
C  -7.12900 16.69600 42.80500
C  -7.42000 13.00900 43.03700
C  -5.08700 15.65900 42.64900
O  -4.19400 14.85200 42.53200
C  -4.84400 17.18800 42.43700
C  -3.86600 17.68600 43.40500
O  -2.75700 18.18900 43.22300
O  -4.28400 17.22800 44.68200
C  -3.45300 17.67600 45.82000
H  -8.86100 22.74200 42.07500
H  -13.99400 18.96100 42.60100
H  -10.40600 13.86400 43.15400
H  -4.85200 20.25200 42.83500
H  -6.35600 22.13700 41.42100
H  -5.49500 22.34800 44.18700
H  -7.18200 22.50000 44.29500
H  -6.14100 23.54200 43.20200
H  -3.84000 19.81700 40.84200
H  -4.55300 21.32400 40.50200
H  -6.59000 19.59400 39.61500
H  -5.14100 18.69400 39.24600
H  -11.94900 24.16700 40.73200
H  -10.29700 23.87500 41.06600
H  -11.49900 24.10000 42.45100
H  -15.27200 20.92300 42.79400
H  -15.05600 20.07500 41.20600
H  -16.08400 21.54300 41.33100
H  -14.18800 16.36800 42.11900
H  -12.69300 14.77700 43.96100
H  -14.92900 15.51000 44.31600
H  -15.20300 17.20800 44.11500
H  -13.79200 16.69500 45.14100
H  -12.21000 14.42700 40.93800
H  -13.86700 14.45400 41.10900
H  -12.15800 12.27100 41.66000
H  -13.81800 12.22200 41.60000
H  -12.89800 12.69100 43.18100
H  -8.34400 12.43000 43.00100
H  -6.93100 12.73100 43.97000
H  -6.96900 12.89900 42.05100
H  -4.46800 17.26400 41.41700
H  -4.21000 17.98200 46.54300
H  -2.74000 18.49300 45.70900
H  -3.06600 16.75200 46.25000


