%nproc=24
%mem=175gb
#p wB97XD/Def2SVP td=(nstates=5)

TDDFT excited states in gaussian

0 1
Mg 40.80400 41.48400 27.15800
C  39.93800 43.96600 29.51800
C  41.67100 39.43500 29.59200
C  42.41200 39.59100 24.81200
C  40.80000 44.20800 24.65700
N  40.84000 41.74700 29.31900
C  40.23400 42.70800 30.04600
C  40.11400 42.23500 31.50800
C  40.62500 40.83000 31.52200
C  41.12800 40.63200 30.06000
C  41.62900 40.55000 32.71400
C  38.74000 42.40700 32.23800
C  38.20000 41.35400 33.29800
H  37.58800 41.87900 34.60500
N  41.67300 39.62800 27.19200
C  41.94100 38.92200 28.34300
C  42.50600 37.66000 27.95800
C  42.79100 37.65600 26.53700
C  42.34000 39.00600 26.13300
C  42.84100 36.69600 29.02300
C  43.34600 36.53900 25.61900
O  43.54900 36.75600 24.47000
C  43.39500 35.12400 26.09600
N  41.54800 41.90500 25.04000
C  42.04300 40.86300 24.33500
C  42.34300 41.24800 22.85100
C  41.79900 42.70700 22.76800
C  41.36100 43.00200 24.22400
C  43.78600 41.15300 22.43200
C  40.63300 43.00600 21.76200
C  39.24100 42.61000 22.12200
N  40.45200 43.63600 26.97900
C  40.44000 44.51600 25.93500
C  39.94600 45.79200 26.39200
C  39.72700 45.66500 27.78900
C  40.09700 44.34100 28.10100
C  39.86300 47.06500 25.62600
C  39.33400 46.33800 28.99400
O  38.92600 47.46900 29.23200
C  39.40400 45.25700 30.16400
C  40.16300 45.75100 31.38400
O  41.33900 46.00900 31.38400
O  39.30000 45.80400 32.46700
C  39.93400 46.30500 33.68700
H  41.79100 38.62500 30.31500
H  42.89000 38.90600 24.10900
H  40.69600 44.98800 23.90000
H  40.78700 42.96300 31.96100
H  39.78000 40.17800 31.74500
H  41.64600 41.41100 33.38200
H  42.57700 40.23500 32.27800
H  41.25100 39.76900 33.37400
H  37.98000 42.45900 31.45800
H  38.66600 43.37100 32.74200
H  39.06500 40.72800 33.51800
H  37.46000 40.71500 32.81600
H  43.75800 36.20700 28.69500
H  42.05100 35.94600 29.03300
H  42.98100 37.00500 30.05900
H  44.39900 35.05700 26.51300
H  43.13900 34.46100 25.26900
H  42.74200 34.89700 26.93900
H  41.71500 40.69400 22.15300
H  42.49200 43.53200 22.60600
H  44.38600 40.63600 23.18200
H  44.24800 42.13400 22.31800
H  43.78100 40.59500 21.49600
H  40.84900 42.53700 20.80200
H  40.70100 44.05800 21.48400
H  39.26600 41.80800 22.86000
H  38.56300 42.19300 21.37700
H  38.76600 43.53300 22.45600
H  40.81300 47.42600 25.23300
H  39.70300 47.84000 26.37600
H  39.09100 47.02600 24.85700
H  38.36800 45.04000 30.42500
H  39.84500 45.31900 34.14200
H  39.21300 47.03100 34.06200
H  40.94500 46.67900 33.52400
Mg 25.47400 50.80800 26.36000
C  23.42800 51.77500 29.14000
C  27.78000 49.80000 28.46900
C  27.48600 50.74800 23.72700
C  22.89100 52.35600 24.24800
N  25.55500 50.75400 28.55700
C  24.64000 51.22200 29.52100
C  25.12200 51.01800 31.00700
C  26.56400 50.28500 30.68300
C  26.67300 50.24400 29.16200
C  27.79400 51.06900 31.31300
C  24.14500 50.22000 31.93900
C  24.75600 49.66700 33.22100
H  24.21600 50.30100 34.51600
N  27.35300 50.24000 26.12300
C  28.22400 49.80700 27.09500
C  29.50900 49.42000 26.55200
C  29.38500 49.70200 25.13400
C  27.97500 50.19600 24.94200
C  30.61900 48.81900 27.27800
C  30.38700 49.50900 24.00900
O  30.13300 49.66800 22.84800
C  31.78500 49.18000 24.46100
N  25.24600 51.52100 24.28400
C  26.25500 51.32600 23.39800
C  25.83300 51.76400 21.97000
C  24.32300 52.13900 22.16700
C  24.10500 51.95100 23.65600
C  26.64800 52.90800 21.27600
C  23.28700 51.29000 21.34900
C  23.20200 51.69600 19.86100
N  23.59000 51.86200 26.56100
C  22.66400 52.33500 25.66000
C  21.52300 52.77100 26.36200
C  21.75600 52.64400 27.68000
C  23.06700 52.09200 27.80400
C  20.26700 53.21900 25.62600
C  21.30400 52.86100 29.05800
O  20.28500 53.34300 29.48100
C  22.42600 52.30600 30.05900
C  23.02400 53.48800 30.75300
O  23.93000 54.23000 30.44700
O  22.33300 53.57900 31.94500
C  22.72800 54.66700 32.87100
H  28.62400 49.48900 29.08800
H  28.23800 50.84300 22.94000
H  22.18300 52.67600 23.48000
H  25.36700 52.00000 31.41200
H  26.54900 49.29900 31.14800
H  28.47500 50.35700 31.77900
H  27.60200 51.88000 32.01500
H  28.41300 51.49500 30.52400
H  23.78800 49.47000 31.23200
H  23.21100 50.69500 32.24000
H  25.83400 49.82400 33.19700
H  24.45000 48.62700 33.33100
H  30.63000 47.83900 26.80100
H  30.42700 48.80700 28.35100
H  31.61000 49.25400 27.15000
H  31.91600 48.09800 24.46700
H  32.15000 49.82600 25.26000
H  32.40300 49.70200 23.73100
H  25.75100 50.83500 21.40500
H  24.20500 53.21400 22.02900
H  26.08400 53.79400 20.98300
H  26.95200 52.49600 20.31400
H  27.50400 53.28000 21.83900
H  22.29300 51.43100 21.77200
H  23.59200 50.25400 21.50300
H  23.57200 52.71200 19.72200
H  22.15600 51.57400 19.58000
H  23.82700 51.09700 19.19800
H  19.37700 53.06800 26.23700
H  20.20500 52.68100 24.68000
H  20.36300 54.25800 25.31000
H  22.01700 51.57800 30.76000
H  21.79500 55.04700 33.28700
H  23.27800 55.48100 32.39900
H  23.31400 54.08500 33.58300


