%nproc=24
%mem=175gb
#p cam-b3lyp/Def2SVP td=(nstates=5)

TDDFT excited states in gaussian

0 1
Mg 10.51715 0.95326 0.80332
C 10.14180 -0.06859 4.22297
C 9.28930 3.99640 1.73405
C 10.41081 1.73909 -2.26891
C 10.61692 -2.42431 -0.04978
N 9.83896 1.74096 2.75571
C 9.80002 1.28110 3.99723
C 9.44785 2.34857 5.06776
C 8.66124 3.38389 4.12531
C 9.32390 3.05106 2.79011
C 7.17608 3.08352 4.00944
C 10.72508 3.00427 5.70080
C 10.46623 3.82697 6.96489
H 11.47593 3.81838 8.01984
N 10.40632 2.73512 -0.06342
C 9.89879 3.86769 0.46666
C 10.03128 4.89526 -0.57772
C 10.50723 4.23771 -1.82504
C 10.43851 2.84472 -1.43143
C 9.79384 6.35460 -0.31817
C 10.93902 4.77323 -3.15657
O 11.08611 4.00827 -4.17442
C 11.09410 6.23174 -3.25760
N 10.30178 -0.17014 -0.93275
C 10.34145 0.41367 -2.14334
C 10.44284 -0.61660 -3.24272
C 10.70781 -2.00954 -2.50305
C 10.62112 -1.53709 -1.03517
C 9.21802 -0.74627 -4.14792
C 11.95902 -2.81553 -2.94746
C 13.21671 -2.07599 -2.55162
N 10.58877 -0.92057 1.87650
C 10.59905 -2.22009 1.32403
C 10.53456 -3.17288 2.45118
C 10.46748 -2.35488 3.58910
C 10.46829 -0.98878 3.19760
C 10.49436 -4.59139 2.34011
C 10.38544 -2.33648 5.03188
O 10.43743 -3.19062 5.91589
C 10.04335 -0.85646 5.49976
C 10.97997 -0.49525 6.61993
O 12.20179 -0.39031 6.41318
O 10.25978 -0.12248 7.69359
C 11.14469 0.25586 8.82744
H 8.70501 4.90667 1.87150
H 10.48460 1.95490 -3.33730
H 10.74243 -3.49454 -0.22734
H 8.79734 1.99936 5.86064
H 8.86942 4.41243 4.40840
H 6.91523 2.15076 4.48701
H 6.96729 3.03680 2.94866
H 6.59049 3.92293 4.39519
H 11.08972 3.79545 5.03310
H 11.47517 2.26353 5.89905
H 9.47080 3.63636 7.38410
H 10.44404 4.88482 6.69196
H 9.29520 6.51585 0.64555
H 9.06577 6.69724 -1.06139
H 10.70288 6.95249 -0.41218
H 10.15101 6.71318 -3.01008
H 11.49370 6.41460 -4.25698
H 11.82131 6.55912 -2.50621
H 11.27824 -0.40213 -3.89787
H 9.87856 -2.71593 -2.65531
H 9.44875 -0.59313 -5.21908
H 8.47093 -0.03813 -3.81485
H 8.68732 -1.69394 -4.07390
H 11.98295 -2.90800 -4.03605
H 11.99380 -3.81964 -2.53812
H 13.34608 -1.35605 -3.36528
H 14.06074 -2.76018 -2.49206
H 13.06374 -1.50567 -1.62805
H 11.16844 -4.98170 3.09095
H 10.77636 -4.92019 1.34204
H 9.43672 -4.77346 2.54873
H 9.00044 -0.84657 5.81886
H 10.84946 -0.36014 9.68247
H 11.03934 1.35172 8.93585
H 12.19739 0.01209 8.74461

