%nproc=24
%mem=175gb
#p cam-b3lyp/Def2SVP td=(nstates=5)

TDDFT excited states in gaussian

0 1
Mg 0.00000 0.00000 0.00000
C -0.21700 -2.21800 2.80100
C -1.25500 2.44200 2.02600
C -0.24500 1.85000 -2.56400
C 0.14600 -2.82400 -2.03700
N -0.61700 -0.00900 2.12600
C -0.59400 -0.90800 3.10500
C -0.93600 -0.30900 4.50200
C -1.77300 0.96400 4.03200
C -1.15500 1.16800 2.66000
C -3.26300 0.68500 3.86300
C 0.34500 0.11000 5.29900
C 0.12400 0.39700 6.78700
H 1.16800 0.03300 7.73300
N -0.18500 1.96100 -0.15200
C -0.70300 2.80000 0.77700
C -0.62000 4.15600 0.19300
C -0.18700 4.01500 -1.22500
C -0.21400 2.58300 -1.38000
C -0.88700 5.40600 0.97400
C 0.18100 5.01300 -2.27700
O 0.30300 4.69000 -3.50800
C 0.31000 6.41400 -1.83700
N -0.26500 -0.41300 -2.02900
C -0.27900 0.56900 -2.93700
C -0.19600 0.02400 -4.33200
C 0.12400 -1.53300 -4.18000
C 0.08600 -1.63200 -2.63500
C -1.45100 0.20500 -5.19700
C 1.37300 -2.07000 -4.92300
C 2.62600 -1.49000 -4.30600
N 0.15000 -2.14400 0.30300
C 0.17300 -3.13600 -0.68800
C 0.17300 -4.43800 0.00400
C 0.13300 -4.11100 1.35800
C 0.08300 -2.69500 1.50200
C 0.14900 -5.71500 -0.62300
C 0.09600 -4.62900 2.71600
O 0.20800 -5.74700 3.22100
C -0.25500 -3.42800 3.70100
C 0.71700 -3.48200 4.84800
O 1.93100 -3.25500 4.66900
O 0.03800 -3.55600 6.00300
C 0.94300 -3.58300 7.18300
H -1.85900 3.22000 2.49700
H -0.21800 2.45300 -3.47400
H 0.27600 -3.74700 -2.60500
H -1.55400 -0.94900 5.13200
H -1.58500 1.83100 4.66500
H -3.48400 -0.37700 3.96900
H -3.51100 1.02700 2.85800
H -3.85200 1.30100 4.54300
H 0.66900 1.09600 4.96600
H 1.13000 -0.63900 5.18900
H -0.84400 0.02600 7.12500
H 0.06200 1.47700 6.92100
H -1.34400 5.18600 1.93800
H -1.65100 5.96300 0.43200
H 0.00700 6.02000 1.08400
H -0.63500 6.74400 -1.40500
H 0.66500 6.97000 -2.70400
H 1.04800 6.46600 -1.03600
H 0.60800 0.50100 -4.89100
H -0.69200 -2.15600 -4.54700
H -1.26700 0.74000 -6.12900
H -2.20400 0.71400 -4.59600
H -1.96700 -0.72000 -5.45300
H 1.35600 -1.75900 -5.96700
H 1.45200 -3.15700 -4.90200
H 2.71400 -0.52200 -4.79800
H 3.48700 -2.12100 -4.52900
H 2.49500 -1.30300 -3.24000
H 0.86700 -6.33300 -0.08400
H 0.40400 -5.64200 -1.68000
H -0.89100 -5.99900 -0.46300
H -1.28300 -3.58100 4.02800
H 0.69800 -4.47800 7.75500
H 0.83300 -2.61900 7.68000
H 2.00000 -3.75400 6.97600
Mg 31.53974 2.83459 2.40189
C 31.73016 -0.51804 1.13592
C 30.55101 1.49501 5.37889
C 30.92893 5.78008 3.41107
C 31.42334 3.92856 -0.90498
N 31.21969 0.74429 3.05033
C 31.38289 -0.44996 2.50128
C 31.23992 -1.63763 3.49050
C 30.32608 -0.91912 4.59842
C 30.74512 0.52988 4.35863
C 28.83696 -1.03805 4.31960
C 32.61942 -2.08760 4.08759
C 32.59625 -3.43223 4.81778
H 33.77019 -4.29565 4.72374
N 31.31997 3.54156 4.24321
C 30.93340 2.85385 5.33815
C 30.90759 3.83028 6.43819
C 31.15092 5.18391 5.86968
C 31.12139 4.88372 4.45225
C 30.74789 3.43155 7.87656
C 31.36103 6.52848 6.49752
O 31.31715 7.60793 5.80783
C 31.52673 6.55128 7.95818
N 31.00926 4.58318 1.41024
C 30.85460 5.73842 2.08064
C 30.74636 6.90892 1.13269
C 31.10441 6.32571 -0.31273
C 31.27827 4.83499 0.05184
C 29.38307 7.59815 1.07968
C 32.24497 7.03337 -1.09440
C 33.56663 6.80725 -0.39619
N 31.75407 1.92453 0.45409
C 31.64348 2.56099 -0.80160
C 31.75189 1.50957 -1.83368
C 31.89611 0.32206 -1.10053
C 31.85854 0.61046 0.29048
C 31.66414 1.71202 -3.23989
C 32.06092 -1.11114 -1.18698
O 32.24480 -1.91067 -2.10387
C 31.83395 -1.73397 0.25765
C 32.95461 -2.70011 0.52824
O 34.12540 -2.29537 0.63792
O 32.43526 -3.90473 0.82747
C 33.50764 -4.89437 1.11457
H 30.01749 1.19571 6.28148
H 30.82446 6.82740 3.70379
H 31.49474 4.20010 -1.96037
H 30.72660 -2.50342 3.08965
H 30.60053 -1.23435 5.60175
H 28.64191 -1.48611 3.35662
H 28.44997 -0.02800 4.35229
H 28.34292 -1.57658 5.13339
H 32.88150 -1.42494 4.92242
H 33.37685 -2.10181 3.32816
H 31.68286 -4.00099 4.60527
H 32.54981 -3.24251 5.89290
H 30.42376 2.38780 7.97104
H 29.91130 4.01321 8.27863
H 31.63985 3.63718 8.47219
H 30.64958 6.11273 8.42802
H 31.75431 7.58884 8.21030
H 32.37769 5.91413 8.22373
H 31.46247 7.68049 1.38758
H 30.24695 6.38340 -0.99923
H 29.43147 8.67946 1.30881
H 28.71825 7.09304 1.76773
H 28.85324 7.50157 0.13356
H 32.08159 8.11379 -1.10723
H 32.32811 6.70797 -2.12599
H 33.57062 7.57814 0.38022
H 34.39420 6.94140 -1.08986
H 33.58468 5.83319 0.10633
H 32.44786 1.11701 -3.68961
H 31.76553 2.76430 -3.49716
H 30.65383 1.33896 -3.42798
H 30.86090 -2.22664 0.25281
H 33.34941 -5.74162 0.44017
H 33.44488 -5.09631 2.20041
H 34.52568 -4.61570 0.86882

