%nproc=24
%mem=175gb
#p cam-b3lyp/Def2SVP td=(nstates=5)

TDDFT excited states in gaussian

0 1
Mg 15.76840 1.41247 1.20540
C 13.12858 2.15200 3.52132
C 17.96732 2.23874 3.67859
C 18.10088 1.20528 -0.93564
C 13.42928 1.75372 -1.35541
N 15.46550 2.09190 3.28840
C 14.41844 2.27731 4.07810
C 14.77356 2.53737 5.56666
C 16.26318 3.10183 5.36344
C 16.60882 2.41074 4.04602
C 16.31235 4.60443 5.14183
C 14.76960 1.22119 6.42086
C 14.80304 1.43737 7.93542
H 14.06423 0.50960 8.78741
N 17.72629 1.20540 1.45517
C 18.45293 1.57462 2.53079
C 19.84659 1.22640 2.21359
C 19.90609 0.77279 0.79746
C 18.55410 1.06981 0.36851
C 20.94708 1.26379 3.23387
C 21.00250 0.18273 -0.03675
O 20.90067 0.08420 -1.31062
C 22.23612 -0.19036 0.67070
N 15.81782 1.67814 -0.85599
C 16.95023 1.47584 -1.55216
C 16.68098 1.45605 -3.03792
C 15.08862 1.44587 -3.18589
C 14.69536 1.55646 -1.69642
C 17.25836 2.62603 -3.83427
C 14.46768 0.30022 -4.03122
C 14.66470 -1.02417 -3.32938
N 13.62880 1.68495 1.07935
C 12.85495 1.82960 -0.09297
C 11.46733 2.10507 0.33256
C 11.53514 2.12455 1.73382
C 12.87450 1.89863 2.15165
C 10.36372 2.34529 -0.53372
C 10.78019 2.29541 2.95429
O 9.58756 2.42585 3.22696
C 11.80116 2.44645 4.16309
C 11.34355 1.54086 5.27351
O 11.34975 0.30612 5.12524
O 11.18187 2.26610 6.39523
C 10.73913 1.40994 7.52782
H 18.73577 2.69109 4.30609
H 18.84715 1.03230 -1.71451
H 12.62295 1.77510 -2.09165
H 14.15768 3.28152 6.05729
H 16.92523 2.76392 6.15644
H 15.32477 5.02912 5.03951
H 16.88246 4.74932 4.23352
H 16.88779 5.08435 5.93862
H 15.72721 0.70257 6.28391
H 13.93268 0.60191 6.16263
H 14.57517 2.47480 8.20884
H 15.82736 1.28691 8.28490
H 20.63565 1.79425 4.14217
H 21.74789 1.88465 2.81781
H 21.34806 0.27287 3.45741
H 22.64761 0.68600 1.16581
H 22.86639 -0.67571 -0.07701
H 21.98376 -0.90795 1.45937
H 17.08181 0.55796 -3.49165
H 14.71921 2.35810 -3.67701
H 17.92969 2.30712 -4.65384
H 17.77954 3.28121 -3.14897
H 16.52003 3.29339 -4.27552
H 14.97844 0.22029 -4.99396
H 13.41167 0.43915 -4.23746
H 15.67985 -1.30947 -3.62120
H 13.93490 -1.75336 -3.67537
H 14.65806 -0.89739 -2.24056
H 9.52795 1.78519 -0.13588
H 10.58971 2.05102 -1.55651
H 10.26699 3.42937 -0.43034
H 11.80051 3.49497 4.46339
H 9.81342 1.84642 7.91543
H 11.60095 1.36046 8.21960
H 10.41705 0.40115 7.29747

