%nproc=24
%mem=175gb
#p cam-b3lyp/Def2SVP td=(nstates=5)

TDDFT excited states in gaussian

0 1
Mg 13.14547 1.19009 0.99460
C 12.52162 3.86985 3.29867
C 12.25932 3.33349 -1.50644
C 13.25000 -1.26553 -1.01199
C 12.86935 -1.00450 3.68778
N 12.49438 3.30380 1.01879
C 12.35373 4.23773 1.94741
C 12.09286 5.66337 1.39149
C 11.47270 5.25633 -0.03279
C 12.14006 3.89397 -0.20962
C 9.96757 5.04985 0.00302
C 13.41515 6.49185 1.22663
C 13.21009 7.98873 0.98359
H 14.17108 8.92543 1.55941
N 13.28284 1.15407 -0.98490
C 12.89598 2.11928 -1.84512
C 13.19046 1.60114 -3.19010
C 13.63016 0.18523 -3.06143
C 13.37932 -0.04167 -1.65229
C 13.12108 2.45366 -4.42373
C 14.17301 -0.80516 -4.04664
O 14.26493 -2.05250 -3.76641
C 14.50644 -0.28672 -5.38138
N 12.86158 -0.85342 1.25111
C 13.01673 -1.70724 0.22405
C 13.03439 -3.13924 0.70305
C 13.10158 -3.05770 2.29880
C 13.01744 -1.52593 2.47768
C 11.83771 -3.99455 0.28737
C 14.26231 -3.82043 2.99422
C 15.58422 -3.17162 2.65217
N 12.95038 1.37545 3.13834
C 12.82468 0.32809 4.07713
C 12.60356 0.95161 5.39803
C 12.59290 2.32883 5.13038
C 12.77307 2.54748 3.73782
C 12.39687 0.25561 6.62235
C 12.45959 3.64701 5.70772
O 12.37504 4.08941 6.85265
C 12.28107 4.69899 4.52964
C 13.21170 5.85143 4.79102
O 14.44415 5.68751 4.76294
O 12.50191 6.99423 4.81520
C 13.38279 8.16716 5.06043
H 11.78426 3.85036 -2.34073
H 13.38931 -2.14549 -1.64425
H 12.87153 -1.61729 4.59175
H 11.37570 6.24695 1.95620
H 11.79257 5.94179 -0.81331
H 9.57846 5.09568 1.00932
H 9.79463 4.07123 -0.42528
H 9.47337 5.76226 -0.66373
H 13.89729 6.21230 0.28104
H 14.06251 6.34801 2.06975
H 12.18392 8.30566 1.20602
H 13.32582 8.18585 -0.08495
H 12.60970 3.40415 -4.22760
H 12.46803 1.93542 -5.13423
H 14.09844 2.60434 -4.88711
H 13.61965 0.15588 -5.82877
H 14.96239 -1.12335 -5.91433
H 15.23910 0.52041 -5.27021
H 13.91354 -3.65754 0.34033
H 12.19953 -3.47874 2.76664
H 12.12525 -4.90597 -0.27004
H 11.16945 -3.38237 -0.30357
H 11.19425 -4.31663 1.10433
H 14.31576 -4.84738 2.62454
H 14.16042 -3.87142 4.07311
H 15.82987 -3.60960 1.68010
H 16.33679 -3.41911 3.39811
H 15.46655 -2.09150 2.50679
H 12.99034 0.76163 7.37218
H 12.67444 -0.79281 6.53544
H 11.31792 0.38609 6.74114
H 11.23573 5.01011 4.52387
H 12.98358 8.68910 5.93558
H 13.40630 8.72763 4.10698
H 14.40078 7.97200 5.37672

