%nproc=24
%mem=175gb
#p cam-b3lyp/Def2SVP td=(nstates=5)

TDDFT excited states in gaussian

0 1
Mg 0.00000 0.00000 0.00000
C -0.21700 -2.21800 2.80100
C -1.25500 2.44200 2.02600
C -0.24500 1.85000 -2.56400
C 0.14600 -2.82400 -2.03700
N -0.61700 -0.00900 2.12600
C -0.59400 -0.90800 3.10500
C -0.93600 -0.30900 4.50200
C -1.77300 0.96400 4.03200
C -1.15500 1.16800 2.66000
C -3.26300 0.68500 3.86300
C 0.34500 0.11000 5.29900
C 0.12400 0.39700 6.78700
H 1.16800 0.03300 7.73300
N -0.18500 1.96100 -0.15200
C -0.70300 2.80000 0.77700
C -0.62000 4.15600 0.19300
C -0.18700 4.01500 -1.22500
C -0.21400 2.58300 -1.38000
C -0.88700 5.40600 0.97400
C 0.18100 5.01300 -2.27700
O 0.30300 4.69000 -3.50800
C 0.31000 6.41400 -1.83700
N -0.26500 -0.41300 -2.02900
C -0.27900 0.56900 -2.93700
C -0.19600 0.02400 -4.33200
C 0.12400 -1.53300 -4.18000
C 0.08600 -1.63200 -2.63500
C -1.45100 0.20500 -5.19700
C 1.37300 -2.07000 -4.92300
C 2.62600 -1.49000 -4.30600
N 0.15000 -2.14400 0.30300
C 0.17300 -3.13600 -0.68800
C 0.17300 -4.43800 0.00400
C 0.13300 -4.11100 1.35800
C 0.08300 -2.69500 1.50200
C 0.14900 -5.71500 -0.62300
C 0.09600 -4.62900 2.71600
O 0.20800 -5.74700 3.22100
C -0.25500 -3.42800 3.70100
C 0.71700 -3.48200 4.84800
O 1.93100 -3.25500 4.66900
O 0.03800 -3.55600 6.00300
C 0.94300 -3.58300 7.18300
H -1.85900 3.22000 2.49700
H -0.21800 2.45300 -3.47400
H 0.27600 -3.74700 -2.60500
H -1.55400 -0.94900 5.13200
H -1.58500 1.83100 4.66500
H -3.48400 -0.37700 3.96900
H -3.51100 1.02700 2.85800
H -3.85200 1.30100 4.54300
H 0.66900 1.09600 4.96600
H 1.13000 -0.63900 5.18900
H -0.84400 0.02600 7.12500
H 0.06200 1.47700 6.92100
H -1.34400 5.18600 1.93800
H -1.65100 5.96300 0.43200
H 0.00700 6.02000 1.08400
H -0.63500 6.74400 -1.40500
H 0.66500 6.97000 -2.70400
H 1.04800 6.46600 -1.03600
H 0.60800 0.50100 -4.89100
H -0.69200 -2.15600 -4.54700
H -1.26700 0.74000 -6.12900
H -2.20400 0.71400 -4.59600
H -1.96700 -0.72000 -5.45300
H 1.35600 -1.75900 -5.96700
H 1.45200 -3.15700 -4.90200
H 2.71400 -0.52200 -4.79800
H 3.48700 -2.12100 -4.52900
H 2.49500 -1.30300 -3.24000
H 0.86700 -6.33300 -0.08400
H 0.40400 -5.64200 -1.68000
H -0.89100 -5.99900 -0.46300
H -1.28300 -3.58100 4.02800
H 0.69800 -4.47800 7.75500
H 0.83300 -2.61900 7.68000
H 2.00000 -3.75400 6.97600
Mg 31.53681 2.84370 2.40371
C 30.69195 0.54996 5.03125
C 29.74369 5.20425 4.09105
C 31.88284 4.75629 -0.10422
C 32.26515 0.07785 0.41240
N 30.40993 2.76640 4.30539
C 30.21043 1.85781 5.24827
C 29.52219 2.40071 6.52934
C 28.78277 3.67214 5.88465
C 29.71795 3.92614 4.70414
C 27.40100 3.35206 5.33912
C 30.55729 2.83342 7.62632
C 29.95904 3.08157 9.01278
H 30.75043 2.72334 10.18660
N 31.33605 4.81231 2.25251
C 30.58600 5.61624 3.03507
C 30.76063 6.97541 2.49996
C 31.54382 6.88554 1.23772
C 31.60137 5.44785 1.06500
C 30.27672 8.20126 3.21866
C 32.13135 7.92232 0.32881
O 32.56782 7.62459 -0.83896
C 32.09527 9.31142 0.80900
N 31.80201 2.47458 0.37497
C 31.97912 3.48508 -0.49419
C 32.42335 2.97255 -1.84340
C 32.74250 1.42015 -1.62946
C 32.32395 1.27735 -0.14965
C 31.41479 3.13247 -2.98078
C 34.15460 0.92762 -2.04904
C 35.20212 1.52860 -1.13969
N 31.67473 0.70782 2.69870
C 31.96850 -0.27069 1.72386
C 31.83441 -1.58929 2.37635
C 31.44644 -1.28479 3.68983
C 31.32622 0.12328 3.83945
C 32.01533 -2.85212 1.74496
C 31.10095 -1.83483 4.98088
O 31.11065 -2.96106 5.47609
C 30.47430 -0.67740 5.87199
C 31.13061 -0.72557 7.22456
O 32.34247 -0.47524 7.34833
O 30.18153 -0.84443 8.17087
C 30.78260 -0.88527 9.53060
H 29.02185 5.95222 4.42025
H 32.11905 5.37524 -0.97289
H 32.57039 -0.82905 -0.11394
H 28.79379 1.73187 6.97189
H 28.78888 4.51963 6.56515
H 27.19147 2.29312 5.36887
H 27.39783 3.70981 4.31782
H 26.64261 3.93811 5.86610
H 30.92243 3.84253 7.39588
H 31.35537 2.12044 7.69946
H 28.94080 2.68334 9.09964
H 29.83822 4.15877 9.15085
H 29.59306 7.94412 4.03713
H 29.65550 8.76198 2.51187
H 31.09424 8.84194 3.55609
H 31.06462 9.60086 0.99990
H 32.64058 9.89276 0.06298
H 32.61980 9.36326 1.76962
H 33.32552 3.47502 -2.17008
H 32.06281 0.78046 -2.21141
H 31.81306 3.70432 -3.84011
H 30.52733 3.60870 -2.58559
H 31.01834 2.20082 -3.38085
H 34.38940 1.26812 -3.06051
H 34.25522 -0.15257 -2.04139
H 35.37497 2.51498 -1.58044
H 36.10894 0.92726 -1.15003
H 34.80453 1.68380 -0.12999
H 32.58935 -3.46285 2.42907
H 32.51804 -2.74859 0.78562
H 30.97375 -3.16421 1.63102
H 29.39988 -0.85522 5.93172
H 30.42616 -1.80220 10.01006
H 30.50597 0.07332 10.00843
H 31.85641 -1.01385 9.60024

