%nproc=24
%mem=175gb
#p cam-b3lyp/Def2SVP td=(nstates=5)

TDDFT excited states in gaussian

0 1
Mg 0.00000 0.00000 0.00000
C -0.21700 -2.21800 2.80100
C -1.25500 2.44200 2.02600
C -0.24500 1.85000 -2.56400
C 0.14600 -2.82400 -2.03700
N -0.61700 -0.00900 2.12600
C -0.59400 -0.90800 3.10500
C -0.93600 -0.30900 4.50200
C -1.77300 0.96400 4.03200
C -1.15500 1.16800 2.66000
C -3.26300 0.68500 3.86300
C 0.34500 0.11000 5.29900
C 0.12400 0.39700 6.78700
H 1.16800 0.03300 7.73300
N -0.18500 1.96100 -0.15200
C -0.70300 2.80000 0.77700
C -0.62000 4.15600 0.19300
C -0.18700 4.01500 -1.22500
C -0.21400 2.58300 -1.38000
C -0.88700 5.40600 0.97400
C 0.18100 5.01300 -2.27700
O 0.30300 4.69000 -3.50800
C 0.31000 6.41400 -1.83700
N -0.26500 -0.41300 -2.02900
C -0.27900 0.56900 -2.93700
C -0.19600 0.02400 -4.33200
C 0.12400 -1.53300 -4.18000
C 0.08600 -1.63200 -2.63500
C -1.45100 0.20500 -5.19700
C 1.37300 -2.07000 -4.92300
C 2.62600 -1.49000 -4.30600
N 0.15000 -2.14400 0.30300
C 0.17300 -3.13600 -0.68800
C 0.17300 -4.43800 0.00400
C 0.13300 -4.11100 1.35800
C 0.08300 -2.69500 1.50200
C 0.14900 -5.71500 -0.62300
C 0.09600 -4.62900 2.71600
O 0.20800 -5.74700 3.22100
C -0.25500 -3.42800 3.70100
C 0.71700 -3.48200 4.84800
O 1.93100 -3.25500 4.66900
O 0.03800 -3.55600 6.00300
C 0.94300 -3.58300 7.18300
H -1.85900 3.22000 2.49700
H -0.21800 2.45300 -3.47400
H 0.27600 -3.74700 -2.60500
H -1.55400 -0.94900 5.13200
H -1.58500 1.83100 4.66500
H -3.48400 -0.37700 3.96900
H -3.51100 1.02700 2.85800
H -3.85200 1.30100 4.54300
H 0.66900 1.09600 4.96600
H 1.13000 -0.63900 5.18900
H -0.84400 0.02600 7.12500
H 0.06200 1.47700 6.92100
H -1.34400 5.18600 1.93800
H -1.65100 5.96300 0.43200
H 0.00700 6.02000 1.08400
H -0.63500 6.74400 -1.40500
H 0.66500 6.97000 -2.70400
H 1.04800 6.46600 -1.03600
H 0.60800 0.50100 -4.89100
H -0.69200 -2.15600 -4.54700
H -1.26700 0.74000 -6.12900
H -2.20400 0.71400 -4.59600
H -1.96700 -0.72000 -5.45300
H 1.35600 -1.75900 -5.96700
H 1.45200 -3.15700 -4.90200
H 2.71400 -0.52200 -4.79800
H 3.48700 -2.12100 -4.52900
H 2.49500 -1.30300 -3.24000
H 0.86700 -6.33300 -0.08400
H 0.40400 -5.64200 -1.68000
H -0.89100 -5.99900 -0.46300
H -1.28300 -3.58100 4.02800
H 0.69800 -4.47800 7.75500
H 0.83300 -2.61900 7.68000
H 2.00000 -3.75400 6.97600
Mg 31.52404 2.84087 2.40129
C 32.95930 4.94461 4.92979
C 30.63183 0.69871 4.90123
C 30.65349 0.75846 0.17123
C 33.49174 4.53149 0.07413
N 31.81326 2.92174 4.59265
C 32.31805 3.79951 5.44650
C 32.05407 3.46901 6.94004
C 31.84538 1.88273 6.80205
C 31.36572 1.82442 5.35319
C 33.13986 1.09389 6.90874
C 30.76341 4.17259 7.48884
C 30.61430 4.14546 9.01159
H 30.01263 5.30018 9.67271
N 30.33841 1.25372 2.51894
C 30.07114 0.51735 3.61785
C 29.16035 -0.54979 3.17533
C 29.04242 -0.48126 1.69340
C 30.04504 0.52172 1.39528
C 28.44068 -1.45443 4.13300
C 28.18012 -1.20848 0.70659
O 28.41215 -1.16195 -0.55310
C 27.11295 -2.05169 1.26483
N 32.15463 2.52296 0.44588
C 31.57428 1.58567 -0.32393
C 31.99909 1.72478 -1.76635
C 32.80064 3.10631 -1.84682
C 32.77618 3.50042 -0.35368
C 32.87325 0.59687 -2.31412
C 32.31071 4.14428 -2.89337
C 30.94651 4.66599 -2.50330
N 32.82819 4.56325 2.42600
C 33.57385 5.08414 1.34583
C 34.39749 6.18904 1.87805
C 34.08862 6.21957 3.24632
C 33.15470 5.19225 3.54949
C 35.32165 6.97235 1.13075
C 34.34829 6.88042 4.50510
O 34.98557 7.87516 4.84876
C 33.72447 6.00313 5.67455
C 32.95008 6.92041 6.58089
O 31.93243 7.50468 6.16902
O 33.40942 6.78804 7.83861
C 32.66498 7.66991 8.77665
H 30.50793 -0.14616 5.57926
H 30.30418 0.13742 -0.65689
H 34.05799 5.17141 -0.60597
H 32.88330 3.67848 7.60507
H 31.06988 1.52635 7.47507
H 34.00413 1.74048 6.94174
H 33.17292 0.46265 6.03040
H 33.09847 0.41571 7.76588
H 29.88415 3.58083 7.20339
H 30.70247 5.18434 7.13776
H 31.54726 3.85903 9.51208
H 29.91270 3.35104 9.27747
H 28.85288 -1.37676 5.14664
H 28.66123 -2.48317 3.82818
H 27.35876 -1.30627 4.12016
H 27.55038 -2.80108 1.92021
H 26.54941 -2.41765 0.40438
H 26.46438 -1.42733 1.88945
H 31.13706 1.78006 -2.41976
H 33.85628 2.94998 -2.11332
H 32.44555 0.10916 -3.21038
H 33.03007 -0.12712 -1.52559
H 33.89170 0.88444 -2.56961
H 32.19380 3.67015 -3.87096
H 32.98818 4.98202 -3.02071
H 30.26894 3.89977 -2.89176
H 30.75837 5.63166 -2.96820
H 30.83007 4.68714 -1.41351
H 35.17345 8.00073 1.43239
H 35.17513 6.84623 0.06005
H 36.26539 6.53700 1.47001
H 34.55002 5.51529 6.19422
H 33.40680 8.29152 9.28752
H 32.05705 6.99216 9.40500
H 32.01644 8.42450 8.34718

