%nproc=24
%mem=175gb
#p cam-b3lyp/Def2SVP td=(nstates=5)

TDDFT excited states in gaussian

0 1
Mg 15.77489 1.42416 1.20160
C 16.52780 -0.72280 3.97698
C 15.43954 3.96601 3.45130
C 14.67125 3.23481 -1.15869
C 15.05232 -1.44372 -0.64199
N 15.98246 1.48896 3.40273
C 16.33202 0.62498 4.34384
C 16.55848 1.25573 5.74400
C 15.64527 2.56497 5.56850
C 15.71667 2.71101 4.04986
C 14.19360 2.34297 5.95926
C 18.06098 1.63268 5.99384
C 18.40752 1.96530 7.44677
H 19.71957 1.57591 7.95606
N 15.62135 3.39780 1.06100
C 15.51722 4.28029 2.07670
C 15.41012 5.60612 1.44833
C 15.29376 5.41961 -0.02354
C 15.16725 3.97787 -0.09737
C 15.50390 6.88582 2.22743
C 15.28353 6.38090 -1.17333
O 14.93289 6.01780 -2.35148
C 15.60607 7.78074 -0.86040
N 14.77538 0.98071 -0.56664
C 14.45624 1.95001 -1.44216
C 13.99433 1.36739 -2.75654
C 14.30092 -0.19943 -2.66336
C 14.82802 -0.26835 -1.21326
C 12.51878 1.57769 -3.09550
C 15.16828 -0.81536 -3.79517
C 16.57860 -0.27676 -3.71577
N 15.95417 -0.70723 1.50669
C 15.56838 -1.73197 0.61498
C 15.77933 -3.01752 1.31161
C 16.25526 -2.64768 2.57857
C 16.31615 -1.23101 2.67249
C 15.49078 -4.30727 0.78302
C 16.70993 -3.13331 3.86159
O 16.95372 -4.24300 4.33369
C 16.78676 -1.90567 4.86826
C 18.11052 -1.97043 5.57960
O 19.17325 -1.81550 4.95253
O 17.89663 -1.98696 6.90789
C 19.18041 -2.03979 7.65684
H 15.08831 4.77833 4.08821
H 14.38068 3.80922 -2.04135
H 14.94354 -2.38605 -1.18316
H 16.19859 0.65992 6.57422
H 16.09304 3.42711 6.05593
H 13.98970 1.30557 6.17919
H 13.60710 2.67236 5.11157
H 13.92138 3.00220 6.78850
H 18.26970 2.60250 5.52414
H 18.71246 0.85983 5.63479
H 17.61772 1.65301 8.14077
H 18.44474 3.05204 7.55459
H 15.42193 6.70667 3.30659
H 14.61425 7.47573 1.98168
H 16.39377 7.46723 1.97690
H 14.90160 8.15741 -0.12263
H 15.63520 8.29601 -1.82244
H 16.59760 7.81575 -0.39536
H 14.55440 1.78649 -3.58344
H 13.37822 -0.79751 -2.69109
H 12.36208 2.09234 -4.06228
H 12.05939 2.13438 -2.28953
H 11.91721 0.67071 -3.12204
H 14.77865 -0.52210 -4.77310
H 15.20047 -1.89955 -3.77326
H 16.50719 0.68031 -4.24113
H 17.27412 -0.94938 -4.21363
H 16.86042 -0.06302 -2.67820
H 16.32652 -4.94382 1.04156
H 15.33621 -4.27035 -0.29332
H 14.56812 -4.53722 1.32256
H 15.94658 -1.99454 5.55803
H 19.12999 -2.91180 8.31619
H 19.28625 -1.04956 8.13849
H 20.08115 -2.25270 7.09311

