%nproc=24
%mem=175gb
#p cam-b3lyp/Def2SVP td=(nstates=5)

TDDFT excited states in gaussian

0 1
Mg 31.54066 2.83355 2.39095
C 31.46938 4.13951 -0.95097
C 31.03862 -0.25563 1.03468
C 31.14889 1.71436 5.33397
C 30.89472 6.06689 3.51966
N 31.30151 2.15726 0.29866
C 31.35393 2.73500 -0.89206
C 31.35913 1.74499 -2.08764
C 30.65197 0.49548 -1.36825
C 31.04691 0.79014 0.07739
C 29.13566 0.52470 -1.46458
C 32.81163 1.38815 -2.56189
C 32.88977 0.67464 -3.91339
H 34.01907 0.96851 -4.79134
N 31.63915 0.97585 3.08218
C 31.42902 -0.16264 2.38866
C 31.60006 -1.25929 3.35421
C 31.76591 -0.66883 4.71014
C 31.49776 0.72641 4.42468
C 31.67476 -2.70112 2.94314
C 32.09687 -1.26359 6.04540
O 31.95540 -0.59907 7.13225
C 32.50236 -2.67676 6.05127
N 30.87926 3.71006 4.15635
C 30.85478 3.01438 5.30672
C 30.60843 3.92221 6.48806
C 30.71366 5.41145 5.91475
C 30.92342 5.09227 4.41825
C 29.26551 3.74334 7.19584
C 31.71944 6.36573 6.61504
C 33.13494 5.89786 6.36435
N 31.41619 4.79693 1.49782
C 31.10871 6.01200 2.14832
C 31.02926 7.05589 1.10601
C 31.27527 6.36597 -0.09065
C 31.47272 4.98576 0.18419
C 30.71298 8.42653 1.32378
C 31.40232 6.48962 -1.52496
O 31.42007 7.43047 -2.31758
C 31.40840 5.03222 -2.15926
C 32.54399 4.95848 -3.14288
O 33.72264 5.04112 -2.75485
O 32.06360 4.58671 -4.34345
C 33.15397 4.48886 -5.35010
H 30.65748 -1.23177 0.73341
H 31.10979 1.40027 6.37958
H 30.79446 7.11739 3.80086
H 30.77380 2.06197 -2.94245
H 31.08401 -0.44606 -1.69721
H 28.77731 1.44552 -1.90028
H 28.77438 0.42054 -0.44986
H 28.77522 -0.35548 -2.00467
H 33.21802 0.60315 -1.91122
H 33.43262 2.26263 -2.57851
H 31.94550 0.73732 -4.46780
H 33.02472 -0.39475 -3.73393
H 31.35535 -2.83989 1.90289
H 30.92494 -3.24069 3.53178
H 32.65594 -3.14235 3.13089
H 31.70870 -3.28199 5.61970
H 32.78384 -2.89573 7.08312
H 33.37603 -2.79275 5.40022
H 31.36817 3.78349 7.24743
H 29.75535 5.94597 5.99074
H 29.36712 3.51703 8.27405
H 28.71634 2.95861 6.69269
H 28.58502 4.58935 7.11585
H 31.57217 6.34295 7.69760
H 31.62588 7.39934 6.29898
H 33.27878 5.12689 7.12725
H 33.83818 6.71796 6.49448
H 33.22153 5.41283 5.38512
H 31.40257 9.00445 0.72297
H 30.78592 8.68889 2.37717
H 29.68008 8.44756 0.96609
H 30.44080 4.87964 -2.63888
H 32.87380 5.13428 -6.18832
H 33.26882 3.40923 -5.56213
H 34.12130 4.89768 -5.08251

