%nproc=24
%mem=175gb
#p cam-b3lyp/Def2SVP td=(nstates=5)

TDDFT excited states in gaussian

0 1
Mg 0.00000 0.00000 0.00000
C -0.21700 -2.21800 2.80100
C -1.25500 2.44200 2.02600
C -0.24500 1.85000 -2.56400
C 0.14600 -2.82400 -2.03700
N -0.61700 -0.00900 2.12600
C -0.59400 -0.90800 3.10500
C -0.93600 -0.30900 4.50200
C -1.77300 0.96400 4.03200
C -1.15500 1.16800 2.66000
C -3.26300 0.68500 3.86300
C 0.34500 0.11000 5.29900
C 0.12400 0.39700 6.78700
H 1.16800 0.03300 7.73300
N -0.18500 1.96100 -0.15200
C -0.70300 2.80000 0.77700
C -0.62000 4.15600 0.19300
C -0.18700 4.01500 -1.22500
C -0.21400 2.58300 -1.38000
C -0.88700 5.40600 0.97400
C 0.18100 5.01300 -2.27700
O 0.30300 4.69000 -3.50800
C 0.31000 6.41400 -1.83700
N -0.26500 -0.41300 -2.02900
C -0.27900 0.56900 -2.93700
C -0.19600 0.02400 -4.33200
C 0.12400 -1.53300 -4.18000
C 0.08600 -1.63200 -2.63500
C -1.45100 0.20500 -5.19700
C 1.37300 -2.07000 -4.92300
C 2.62600 -1.49000 -4.30600
N 0.15000 -2.14400 0.30300
C 0.17300 -3.13600 -0.68800
C 0.17300 -4.43800 0.00400
C 0.13300 -4.11100 1.35800
C 0.08300 -2.69500 1.50200
C 0.14900 -5.71500 -0.62300
C 0.09600 -4.62900 2.71600
O 0.20800 -5.74700 3.22100
C -0.25500 -3.42800 3.70100
C 0.71700 -3.48200 4.84800
O 1.93100 -3.25500 4.66900
O 0.03800 -3.55600 6.00300
C 0.94300 -3.58300 7.18300
H -1.85900 3.22000 2.49700
H -0.21800 2.45300 -3.47400
H 0.27600 -3.74700 -2.60500
H -1.55400 -0.94900 5.13200
H -1.58500 1.83100 4.66500
H -3.48400 -0.37700 3.96900
H -3.51100 1.02700 2.85800
H -3.85200 1.30100 4.54300
H 0.66900 1.09600 4.96600
H 1.13000 -0.63900 5.18900
H -0.84400 0.02600 7.12500
H 0.06200 1.47700 6.92100
H -1.34400 5.18600 1.93800
H -1.65100 5.96300 0.43200
H 0.00700 6.02000 1.08400
H -0.63500 6.74400 -1.40500
H 0.66500 6.97000 -2.70400
H 1.04800 6.46600 -1.03600
H 0.60800 0.50100 -4.89100
H -0.69200 -2.15600 -4.54700
H -1.26700 0.74000 -6.12900
H -2.20400 0.71400 -4.59600
H -1.96700 -0.72000 -5.45300
H 1.35600 -1.75900 -5.96700
H 1.45200 -3.15700 -4.90200
H 2.71400 -0.52200 -4.79800
H 3.48700 -2.12100 -4.52900
H 2.49500 -1.30300 -3.24000
H 0.86700 -6.33300 -0.08400
H 0.40400 -5.64200 -1.68000
H -0.89100 -5.99900 -0.46300
H -1.28300 -3.58100 4.02800
H 0.69800 -4.47800 7.75500
H 0.83300 -2.61900 7.68000
H 2.00000 -3.75400 6.97600
Mg 10.50098 0.94934 0.80077
C 8.61549 -1.85458 -0.40836
C 8.75451 2.88265 -1.40077
C 12.44774 3.35003 1.51789
C 12.83129 -1.32800 2.03732
N 8.91501 0.46168 -0.66182
C 8.23545 -0.62693 -0.98963
C 7.03174 -0.37302 -1.93630
C 7.53626 0.99731 -2.60455
C 8.43235 1.50403 -1.47630
C 8.39681 0.78389 -3.83874
C 5.68768 -0.16921 -1.15274
C 4.42531 -0.22461 -2.01594
H 3.21687 -0.81284 -1.44485
N 10.28397 2.90342 0.53049
C 9.51725 3.51663 -0.39547
C 9.71879 4.95974 -0.19303
C 10.79332 5.14580 0.81962
C 11.24087 3.77725 0.98356
C 8.87483 6.00175 -0.86784
C 11.33775 6.35684 1.51472
O 12.43238 6.31604 2.18028
C 10.60104 7.61350 1.31584
N 12.46953 1.01783 1.46595
C 13.06204 2.19033 1.75250
C 14.37294 1.97774 2.47133
C 14.42157 0.41865 2.82411
C 13.11404 -0.03659 2.13963
C 15.62964 2.36207 1.69070
C 14.64630 0.04086 4.31389
C 13.44540 0.44875 5.13659
N 10.62659 -1.19919 0.99076
C 11.70316 -1.94764 1.51506
C 11.37281 -3.37532 1.32792
C 10.12752 -3.35799 0.68183
C 9.72051 -2.01423 0.46238
C 12.20024 -4.47517 1.69099
C 9.06968 -4.17086 0.12602
O 8.82260 -5.37585 0.09979
C 8.10247 -3.23355 -0.71798
C 6.68597 -3.55773 -0.32944
O 6.27757 -3.32571 0.82208
O 5.98965 -3.88326 -1.43376
C 4.57567 -4.20239 -1.10111
H 8.42841 3.53674 -2.20991
H 13.10799 4.14029 1.88261
H 13.46090 -2.10060 2.48381
H 6.88722 -1.12790 -2.69987
H 6.70962 1.68285 -2.77205
H 8.62553 -0.25988 -3.99484
H 9.30385 1.34826 -3.66610
H 7.92126 1.23772 -4.71294
H 5.63092 0.86974 -0.80332
H 5.60580 -0.87283 -0.34723
H 4.62376 -0.64336 -3.01002
H 4.09698 0.79811 -2.21659
H 8.27704 5.57083 -1.68045
H 9.56059 6.69164 -1.37149
H 8.25957 6.56614 -0.16386
H 10.56190 7.84502 0.25409
H 11.09048 8.34462 1.96222
H 9.56597 7.46803 1.64460
H 14.40605 2.54753 3.39185
H 15.24397 -0.09185 2.30173
H 16.25863 3.10610 2.21497
H 15.32830 2.73481 0.72076
H 16.28140 1.53103 1.42655
H 15.50058 0.58891 4.71886
H 14.83948 -1.01564 4.46717
H 13.63283 1.50757 5.33870
H 13.39939 -0.12699 6.05879
H 12.52377 0.38388 4.54663
H 11.55574 -5.20971 2.15528
H 13.00010 -4.16679 2.36099
H 12.57829 -4.76775 0.70776
H 8.29304 -3.43175 -1.77343
H 4.37310 -5.20346 -1.49416
H 3.97640 -3.36874 -1.51300
H 4.32364 -4.33093 -0.05497

