%nproc=24
%mem=175gb
#p cam-b3lyp/Def2SVP td=(nstates=5)

TDDFT excited states in gaussian

0 1
Mg 0.00000 0.00000 0.00000
C -0.21700 -2.21800 2.80100
C -1.25500 2.44200 2.02600
C -0.24500 1.85000 -2.56400
C 0.14600 -2.82400 -2.03700
N -0.61700 -0.00900 2.12600
C -0.59400 -0.90800 3.10500
C -0.93600 -0.30900 4.50200
C -1.77300 0.96400 4.03200
C -1.15500 1.16800 2.66000
C -3.26300 0.68500 3.86300
C 0.34500 0.11000 5.29900
C 0.12400 0.39700 6.78700
H 1.16800 0.03300 7.73300
N -0.18500 1.96100 -0.15200
C -0.70300 2.80000 0.77700
C -0.62000 4.15600 0.19300
C -0.18700 4.01500 -1.22500
C -0.21400 2.58300 -1.38000
C -0.88700 5.40600 0.97400
C 0.18100 5.01300 -2.27700
O 0.30300 4.69000 -3.50800
C 0.31000 6.41400 -1.83700
N -0.26500 -0.41300 -2.02900
C -0.27900 0.56900 -2.93700
C -0.19600 0.02400 -4.33200
C 0.12400 -1.53300 -4.18000
C 0.08600 -1.63200 -2.63500
C -1.45100 0.20500 -5.19700
C 1.37300 -2.07000 -4.92300
C 2.62600 -1.49000 -4.30600
N 0.15000 -2.14400 0.30300
C 0.17300 -3.13600 -0.68800
C 0.17300 -4.43800 0.00400
C 0.13300 -4.11100 1.35800
C 0.08300 -2.69500 1.50200
C 0.14900 -5.71500 -0.62300
C 0.09600 -4.62900 2.71600
O 0.20800 -5.74700 3.22100
C -0.25500 -3.42800 3.70100
C 0.71700 -3.48200 4.84800
O 1.93100 -3.25500 4.66900
O 0.03800 -3.55600 6.00300
C 0.94300 -3.58300 7.18300
H -1.85900 3.22000 2.49700
H -0.21800 2.45300 -3.47400
H 0.27600 -3.74700 -2.60500
H -1.55400 -0.94900 5.13200
H -1.58500 1.83100 4.66500
H -3.48400 -0.37700 3.96900
H -3.51100 1.02700 2.85800
H -3.85200 1.30100 4.54300
H 0.66900 1.09600 4.96600
H 1.13000 -0.63900 5.18900
H -0.84400 0.02600 7.12500
H 0.06200 1.47700 6.92100
H -1.34400 5.18600 1.93800
H -1.65100 5.96300 0.43200
H 0.00700 6.02000 1.08400
H -0.63500 6.74400 -1.40500
H 0.66500 6.97000 -2.70400
H 1.04800 6.46600 -1.03600
H 0.60800 0.50100 -4.89100
H -0.69200 -2.15600 -4.54700
H -1.26700 0.74000 -6.12900
H -2.20400 0.71400 -4.59600
H -1.96700 -0.72000 -5.45300
H 1.35600 -1.75900 -5.96700
H 1.45200 -3.15700 -4.90200
H 2.71400 -0.52200 -4.79800
H 3.48700 -2.12100 -4.52900
H 2.49500 -1.30300 -3.24000
H 0.86700 -6.33300 -0.08400
H 0.40400 -5.64200 -1.68000
H -0.89100 -5.99900 -0.46300
H -1.28300 -3.58100 4.02800
H 0.69800 -4.47800 7.75500
H 0.83300 -2.61900 7.68000
H 2.00000 -3.75400 6.97600
Mg 8.94053 0.81001 0.68502
C 8.66680 -1.03972 3.74812
C 7.68736 3.49770 2.37040
C 8.74522 2.33417 -2.09099
C 9.07343 -2.24539 -0.98607
N 8.29848 1.07135 2.78543
C 8.29782 0.31586 3.87336
C 7.95523 1.07493 5.18332
C 7.12886 2.29506 4.54514
C 7.76341 2.32000 3.15611
C 5.64632 2.00074 4.38776
C 9.23708 1.57986 5.93427
C 8.99652 2.05575 7.36864
H 10.03213 1.80653 8.36757
N 8.77952 2.74881 0.29295
C 8.26715 3.70221 1.09904
C 8.35707 4.96026 0.34181
C 8.81240 4.64483 -1.03945
C 8.77592 3.19654 -1.00475
C 8.10269 6.30334 0.96216
C 9.20228 5.50456 -2.20352
O 9.33632 5.02078 -3.38285
C 9.33129 6.94525 -1.94034
N 8.70019 0.15029 -1.27185
C 8.70035 1.01808 -2.29891
C 8.79096 0.29675 -3.62249
C 9.09662 -1.23045 -3.25944
C 9.03885 -1.14072 -1.71866
C 7.54626 0.37010 -4.50665
C 10.34922 -1.87280 -3.91598
C 11.60429 -1.22801 -3.37336
N 9.06896 -1.27011 1.25478
C 9.08643 -2.39041 0.39530
C 9.06532 -3.59521 1.24996
C 9.01338 -3.08825 2.55717
C 8.98247 -1.66801 2.51916
C 9.04522 -4.94181 0.78912
C 8.96695 -3.43178 3.96021
O 9.05464 -4.47793 4.60178
C 8.61281 -2.12287 4.78951
C 9.57105 -2.03189 5.94537
O 10.78551 -1.85214 5.74691
O 8.87186 -1.95423 7.09232
C 9.77847 -1.85120 8.26674
H 7.09208 4.33204 2.74243
H 8.78894 2.81097 -3.07294
H 9.21171 -3.23461 -1.42766
H 7.33033 0.52506 5.87681
H 7.32743 3.22488 5.07180
H 5.41247 0.97295 4.62249
H 5.41200 2.21532 3.35331
H 5.05706 2.70458 4.98251
H 9.57222 2.52022 5.47804
H 10.00369 0.82962 5.92623
H 8.01501 1.74503 7.74687
H 8.95051 3.14749 7.36893
H 7.62563 6.20843 1.94542
H 7.35095 6.80444 0.34276
H 8.99937 6.92546 1.00218
H 8.38702 7.32915 -1.56160
H 9.70293 7.38006 -2.87023
H 10.07160 7.09082 -1.14575
H 9.60625 0.68589 -4.21997
H 8.27532 -1.89451 -3.56656
H 7.74780 0.79034 -5.51007
H 6.79638 0.95644 -3.99243
H 7.03289 -0.57745 -4.66093
H 10.34756 -1.69052 -4.99345
H 10.41032 -2.94623 -3.77106
H 11.70178 -0.32537 -3.98396
H 12.46044 -1.88689 -3.50343
H 11.46515 -0.90931 -2.33378
H 9.74396 -5.49214 1.40508
H 9.30758 -5.00529 -0.26487
H 7.99616 -5.19313 0.96685
H 7.57813 -2.21555 5.12183
H 9.51454 -2.66713 8.94665
H 9.65822 -0.81950 8.64737
H 10.83257 -2.04363 8.10458

