%nproc=24
%mem=175gb
#p cam-b3lyp/Def2SVP td=(nstates=5)

TDDFT excited states in gaussian

0 1
Mg 0.00000 0.00000 0.00000
C -0.21700 -2.21800 2.80100
C -1.25500 2.44200 2.02600
C -0.24500 1.85000 -2.56400
C 0.14600 -2.82400 -2.03700
N -0.61700 -0.00900 2.12600
C -0.59400 -0.90800 3.10500
C -0.93600 -0.30900 4.50200
C -1.77300 0.96400 4.03200
C -1.15500 1.16800 2.66000
C -3.26300 0.68500 3.86300
C 0.34500 0.11000 5.29900
C 0.12400 0.39700 6.78700
H 1.16800 0.03300 7.73300
N -0.18500 1.96100 -0.15200
C -0.70300 2.80000 0.77700
C -0.62000 4.15600 0.19300
C -0.18700 4.01500 -1.22500
C -0.21400 2.58300 -1.38000
C -0.88700 5.40600 0.97400
C 0.18100 5.01300 -2.27700
O 0.30300 4.69000 -3.50800
C 0.31000 6.41400 -1.83700
N -0.26500 -0.41300 -2.02900
C -0.27900 0.56900 -2.93700
C -0.19600 0.02400 -4.33200
C 0.12400 -1.53300 -4.18000
C 0.08600 -1.63200 -2.63500
C -1.45100 0.20500 -5.19700
C 1.37300 -2.07000 -4.92300
C 2.62600 -1.49000 -4.30600
N 0.15000 -2.14400 0.30300
C 0.17300 -3.13600 -0.68800
C 0.17300 -4.43800 0.00400
C 0.13300 -4.11100 1.35800
C 0.08300 -2.69500 1.50200
C 0.14900 -5.71500 -0.62300
C 0.09600 -4.62900 2.71600
O 0.20800 -5.74700 3.22100
C -0.25500 -3.42800 3.70100
C 0.71700 -3.48200 4.84800
O 1.93100 -3.25500 4.66900
O 0.03800 -3.55600 6.00300
C 0.94300 -3.58300 7.18300
H -1.85900 3.22000 2.49700
H -0.21800 2.45300 -3.47400
H 0.27600 -3.74700 -2.60500
H -1.55400 -0.94900 5.13200
H -1.58500 1.83100 4.66500
H -3.48400 -0.37700 3.96900
H -3.51100 1.02700 2.85800
H -3.85200 1.30100 4.54300
H 0.66900 1.09600 4.96600
H 1.13000 -0.63900 5.18900
H -0.84400 0.02600 7.12500
H 0.06200 1.47700 6.92100
H -1.34400 5.18600 1.93800
H -1.65100 5.96300 0.43200
H 0.00700 6.02000 1.08400
H -0.63500 6.74400 -1.40500
H 0.66500 6.97000 -2.70400
H 1.04800 6.46600 -1.03600
H 0.60800 0.50100 -4.89100
H -0.69200 -2.15600 -4.54700
H -1.26700 0.74000 -6.12900
H -2.20400 0.71400 -4.59600
H -1.96700 -0.72000 -5.45300
H 1.35600 -1.75900 -5.96700
H 1.45200 -3.15700 -4.90200
H 2.71400 -0.52200 -4.79800
H 3.48700 -2.12100 -4.52900
H 2.49500 -1.30300 -3.24000
H 0.86700 -6.33300 -0.08400
H 0.40400 -5.64200 -1.68000
H -0.89100 -5.99900 -0.46300
H -1.28300 -3.58100 4.02800
H 0.69800 -4.47800 7.75500
H 0.83300 -2.61900 7.68000
H 2.00000 -3.75400 6.97600
Mg 13.14608 1.17675 1.00239
C 13.36014 -1.46442 -1.41783
C 12.30227 -1.19906 3.29981
C 12.51097 3.51991 3.04535
C 12.87845 3.40798 -1.66138
N 12.89670 -1.01506 0.84101
C 13.06443 -1.91644 -0.11488
C 12.98553 -3.38929 0.36891
C 12.09977 -3.16167 1.68894
C 12.47773 -1.71283 1.99009
C 10.60393 -3.22060 1.42752
C 14.39648 -3.97992 0.71873
C 14.43066 -5.49897 0.90060
H 15.61854 -6.22599 0.46143
N 12.98227 1.14717 2.97998
C 12.65325 0.09140 3.75353
C 12.64876 0.59205 5.13682
C 12.84056 2.06743 5.10232
C 12.76286 2.31006 3.67572
C 12.55337 -0.31407 6.32983
C 13.04555 3.09224 6.17653
O 12.95169 4.34772 5.93614
C 13.26697 2.58069 7.53697
N 12.53995 3.14839 0.74242
C 12.38627 3.96909 1.79635
C 12.21617 5.40213 1.35154
C 12.53072 5.40550 -0.21646
C 12.75080 3.89230 -0.43366
C 10.83723 6.01503 1.59503
C 13.62466 6.39025 -0.71268
C 14.97687 5.96829 -0.18460
N 13.30476 1.05674 -1.14900
C 13.13201 2.10706 -2.07694
C 13.22327 1.51453 -3.42713
C 13.42139 0.14610 -3.18912
C 13.43130 -0.10005 -1.78954
C 13.07694 2.21794 -4.65592
C 13.61377 -1.14772 -3.80370
O 13.77941 -1.54612 -4.95591
C 13.45628 -2.26663 -2.68583
C 14.60723 -3.22531 -2.82282
O 15.77234 -2.84948 -2.60399
O 14.12606 -4.47250 -2.97566
C 15.22992 -5.46076 -3.10464
H 11.81060 -1.82816 4.04235
H 12.39520 4.38131 3.70721
H 12.90316 4.05173 -2.54323
H 12.47600 -4.06345 -0.30908
H 12.41951 -3.81492 2.49665
H 10.38161 -3.28855 0.37296
H 10.19668 -2.30768 1.84198
H 10.15345 -4.03783 1.99807
H 14.67615 -3.66308 1.73171
H 15.12416 -3.68713 -0.01296
H 13.52229 -5.98040 0.51846
H 14.42165 -5.72065 1.97055
H 12.25584 -1.32963 6.04084
H 11.72051 0.04927 6.94155
H 13.46300 -0.31193 6.93419
H 12.41833 1.96993 7.83570
H 13.48157 3.45940 8.14826
H 14.14116 1.92019 7.52440
H 12.92469 6.04955 1.85349
H 11.64636 5.68265 -0.80885
H 10.87098 6.93671 2.20613
H 10.21057 5.26931 2.06591
H 10.27350 6.25585 0.69536
H 13.43752 7.39300 -0.32073
H 13.67495 6.47111 -1.79339
H 14.99412 6.39833 0.82131
H 15.77395 6.37708 -0.80234
H 15.03541 4.87882 -0.07838
H 13.85543 1.85795 -5.31536
H 13.14550 3.29378 -4.50877
H 12.06846 1.90597 -4.94034
H 12.49468 -2.75597 -2.84531
H 15.06418 -6.00465 -4.03974
H 15.21351 -6.05078 -2.16904
H 16.23144 -5.07628 -3.25827

