%nproc=24
%mem=175gb
#p cam-b3lyp/Def2SVP td=(nstates=5)

TDDFT excited states in gaussian

0 1
Mg 0.00000 0.00000 0.00000
C -0.21700 -2.21800 2.80100
C -1.25500 2.44200 2.02600
C -0.24500 1.85000 -2.56400
C 0.14600 -2.82400 -2.03700
N -0.61700 -0.00900 2.12600
C -0.59400 -0.90800 3.10500
C -0.93600 -0.30900 4.50200
C -1.77300 0.96400 4.03200
C -1.15500 1.16800 2.66000
C -3.26300 0.68500 3.86300
C 0.34500 0.11000 5.29900
C 0.12400 0.39700 6.78700
H 1.16800 0.03300 7.73300
N -0.18500 1.96100 -0.15200
C -0.70300 2.80000 0.77700
C -0.62000 4.15600 0.19300
C -0.18700 4.01500 -1.22500
C -0.21400 2.58300 -1.38000
C -0.88700 5.40600 0.97400
C 0.18100 5.01300 -2.27700
O 0.30300 4.69000 -3.50800
C 0.31000 6.41400 -1.83700
N -0.26500 -0.41300 -2.02900
C -0.27900 0.56900 -2.93700
C -0.19600 0.02400 -4.33200
C 0.12400 -1.53300 -4.18000
C 0.08600 -1.63200 -2.63500
C -1.45100 0.20500 -5.19700
C 1.37300 -2.07000 -4.92300
C 2.62600 -1.49000 -4.30600
N 0.15000 -2.14400 0.30300
C 0.17300 -3.13600 -0.68800
C 0.17300 -4.43800 0.00400
C 0.13300 -4.11100 1.35800
C 0.08300 -2.69500 1.50200
C 0.14900 -5.71500 -0.62300
C 0.09600 -4.62900 2.71600
O 0.20800 -5.74700 3.22100
C -0.25500 -3.42800 3.70100
C 0.71700 -3.48200 4.84800
O 1.93100 -3.25500 4.66900
O 0.03800 -3.55600 6.00300
C 0.94300 -3.58300 7.18300
H -1.85900 3.22000 2.49700
H -0.21800 2.45300 -3.47400
H 0.27600 -3.74700 -2.60500
H -1.55400 -0.94900 5.13200
H -1.58500 1.83100 4.66500
H -3.48400 -0.37700 3.96900
H -3.51100 1.02700 2.85800
H -3.85200 1.30100 4.54300
H 0.66900 1.09600 4.96600
H 1.13000 -0.63900 5.18900
H -0.84400 0.02600 7.12500
H 0.06200 1.47700 6.92100
H -1.34400 5.18600 1.93800
H -1.65100 5.96300 0.43200
H 0.00700 6.02000 1.08400
H -0.63500 6.74400 -1.40500
H 0.66500 6.97000 -2.70400
H 1.04800 6.46600 -1.03600
H 0.60800 0.50100 -4.89100
H -0.69200 -2.15600 -4.54700
H -1.26700 0.74000 -6.12900
H -2.20400 0.71400 -4.59600
H -1.96700 -0.72000 -5.45300
H 1.35600 -1.75900 -5.96700
H 1.45200 -3.15700 -4.90200
H 2.71400 -0.52200 -4.79800
H 3.48700 -2.12100 -4.52900
H 2.49500 -1.30300 -3.24000
H 0.86700 -6.33300 -0.08400
H 0.40400 -5.64200 -1.68000
H -0.89100 -5.99900 -0.46300
H -1.28300 -3.58100 4.02800
H 0.69800 -4.47800 7.75500
H 0.83300 -2.61900 7.68000
H 2.00000 -3.75400 6.97600
Mg 13.14652 1.17584 0.99767
C 13.26887 0.48009 -2.52085
C 12.52546 -2.14314 1.48060
C 12.58692 1.82669 4.05229
C 12.63830 4.52449 0.17670
N 12.94703 -0.51322 -0.41638
C 13.07443 -0.66846 -1.72558
C 13.06886 -2.14593 -2.20163
C 12.26845 -2.79277 -0.96882
C 12.62601 -1.77730 0.11452
C 10.76054 -2.77950 -1.15694
C 14.51591 -2.74049 -2.32232
C 14.60397 -4.07083 -3.07344
H 15.77894 -4.32572 -3.90227
N 13.11765 -0.02007 2.58119
C 12.87077 -1.34677 2.59455
C 12.94606 -1.75582 4.00564
C 13.09454 -0.53328 4.84114
C 12.91395 0.49582 3.83693
C 12.95644 -3.19374 4.43657
C 13.34348 -0.32485 6.30428
O 13.19917 0.82352 6.85496
C 13.67031 -1.52314 7.09090
N 12.47033 2.88176 1.97489
C 12.36579 2.91518 3.31499
C 12.12675 4.32218 3.80856
C 12.33438 5.26565 2.53406
C 12.58071 4.18602 1.45744
C 10.75113 4.58811 4.41959
C 13.36483 6.41956 2.67304
C 14.76071 5.85272 2.79789
N 13.16263 2.35285 -0.81408
C 12.89880 3.73475 -0.93588
C 12.91480 4.05561 -2.37783
C 13.16602 2.82397 -3.00109
C 13.27727 1.80370 -2.01814
C 12.66649 5.33600 -2.94795
C 13.35185 2.15310 -4.26761
O 13.45009 2.51888 -5.43821
C 13.30105 0.58379 -4.02046
C 14.46597 -0.03783 -4.74091
O 15.63246 0.20909 -4.38742
O 14.00997 -0.98415 -5.58170
C 15.12930 -1.63726 -6.31135
H 12.10256 -3.11747 1.72700
H 12.49256 2.12565 5.09880
H 12.58567 5.56352 -0.15544
H 12.53336 -2.32313 -3.12663
H 12.65986 -3.77455 -0.71530
H 10.46939 -2.22853 -2.03887
H 10.35735 -2.31169 -0.26832
H 10.37226 -3.80202 -1.16184
H 14.85462 -3.06266 -1.32923
H 15.18415 -2.02924 -2.76751
H 13.68540 -4.29109 -3.63081
H 14.67340 -4.87887 -2.34114
H 12.66803 -3.86179 3.61564
H 12.15719 -3.31165 5.17627
H 13.90444 -3.49067 4.89022
H 12.86089 -2.24406 7.00396
H 13.90155 -1.16001 8.09417
H 14.55944 -1.99444 6.65739
H 12.84955 4.59357 4.56817
H 11.40472 5.78246 2.25391
H 10.80081 4.97480 5.45500
H 10.17843 3.67092 4.38328
H 10.12147 5.27602 3.85789
H 13.17717 6.98672 3.58806
H 13.33971 7.12286 1.84736
H 14.83411 5.60976 3.86216
H 15.50269 6.59491 2.51038
H 14.85617 4.91493 2.23835
H 13.40820 5.48127 -3.72207
H 12.71528 6.12182 -2.19703
H 11.65002 5.18886 -3.32266
H 12.34465 0.22303 -4.40090
H 14.91570 -1.53697 -7.37999
H 15.19236 -2.66401 -5.90446
H 16.10720 -1.17468 -6.24680

