%nproc=24
%mem=175gb
#p cam-b3lyp/Def2SVP td=(nstates=5)

TDDFT excited states in gaussian

0 1
Mg 31.53723 2.84564 2.40194
C 32.08894 0.75167 5.26375
C 29.63873 4.84075 4.41436
C 30.66498 4.45844 -0.18755
C 32.49101 0.14539 0.41582
N 31.00724 2.70932 4.54502
C 31.32542 1.90335 5.54677
C 30.86334 2.39951 6.94315
C 29.65105 3.34256 6.47421
C 30.13853 3.68628 5.06819
C 28.32731 2.60594 6.35402
C 31.97633 3.22059 7.68416
C 31.70882 3.47132 9.16987
H 32.84321 3.48090 10.08941
N 30.74903 4.65815 2.22271
C 30.02717 5.32656 3.14651
C 29.66158 6.60733 2.52189
C 30.08633 6.57197 1.09604
C 30.50708 5.19005 0.98051
C 29.04810 7.74161 3.29031
C 30.09833 7.60679 0.01197
O 30.28683 7.29300 -1.21638
C 29.79022 8.98568 0.41845
N 31.36714 2.31262 0.39961
C 31.01803 3.21930 -0.52989
C 31.22868 2.67967 -1.92446
C 32.02299 1.30429 -1.73749
C 32.05734 1.23960 -0.19475
C 29.96000 2.42771 -2.73894
C 33.35990 1.15255 -2.51359
C 34.38798 2.11486 -1.96370
N 32.35226 0.87421 2.74438
C 32.65362 -0.10484 1.77241
C 33.07513 -1.32170 2.49631
C 32.96685 -0.97076 3.85041
C 32.49081 0.36351 3.96276
C 33.44194 -2.56027 1.89838
C 33.13687 -1.42916 5.21043
O 33.59562 -2.44348 5.73431
C 32.45548 -0.37669 6.18737
C 33.42221 -0.08391 7.30193
O 34.50087 0.48942 7.06872
O 32.82307 -0.33077 8.48111
C 33.73855 -0.04463 9.61770
H 28.84259 5.40726 4.89821
H 30.48274 5.00602 -1.11515
H 32.89755 -0.70697 -0.13271
H 30.49621 1.62240 7.60276
H 29.58849 4.23887 7.08583
H 28.44496 1.54116 6.49016
H 27.95977 2.82186 5.35937
H 27.59459 3.03222 7.04520
H 31.96509 4.25392 7.31423
H 32.93607 2.75709 7.56299
H 30.90533 2.83325 9.55743
H 31.32407 4.48738 9.28655
H 28.70078 7.41647 4.27877
H 28.13262 8.02797 2.76138
H 29.70573 8.61111 3.35470
H 28.80493 9.01522 0.87757
H 29.93555 9.59360 -0.47664
H 30.50607 9.29131 1.18966
H 31.83362 3.35749 -2.51412
H 31.42955 0.44190 -2.07504
H 29.94324 2.97396 -3.70092
H 29.10580 2.69876 -2.13281
H 29.75834 1.38275 -2.96823
H 33.21948 1.41573 -3.56487
H 33.76426 0.14624 -2.48477
H 34.15179 3.05002 -2.48020
H 35.39468 1.77651 -2.20058
H 34.23564 2.28305 -0.89124
H 34.32235 -2.90969 2.42113
H 33.63010 -2.44703 0.83276
H 32.54068 -3.14674 2.09603
H 31.53001 -0.82194 6.55456
H 33.79532 -0.95682 10.21967
H 33.33116 0.85876 10.10931
H 34.78445 0.12316 9.38883

