%nproc=24
%mem=175gb
#p cam-b3lyp/Def2SVP td=(nstates=5)

TDDFT excited states in gaussian

0 1
Mg 31.54064 2.83272 2.39217
C 31.54215 3.48764 -1.13631
C 31.01078 -0.44980 1.63132
C 31.08538 2.29206 5.48536
C 30.92864 6.22856 2.88147
N 31.32339 1.77808 0.46012
C 31.40350 2.12086 -0.81676
C 31.41158 0.92367 -1.80481
C 30.67356 -0.15919 -0.87657
C 31.05058 0.39707 0.49496
C 29.15959 -0.12939 -1.00437
C 32.86544 0.46563 -2.17697
C 32.95327 -0.49027 -3.36873
H 34.10062 -0.38110 -4.26547
N 31.59884 1.13707 3.42171
C 31.38148 -0.10878 2.95065
C 31.52003 -1.00634 4.10795
C 31.67411 -0.17355 5.33165
C 31.43263 1.14639 4.78435
C 31.57821 -2.50058 3.97646
C 31.97476 -0.51072 6.76068
O 31.82695 0.34809 7.70059
C 32.35761 -1.90259 7.03929
N 30.86585 4.03393 3.94912
C 30.81241 3.56738 5.20904
C 30.56215 4.68423 6.19413
C 30.69993 6.03761 5.35332
C 30.92787 5.44005 3.94750
C 29.20571 4.65870 6.89825
C 31.70973 7.09375 5.88017
C 33.12135 6.56918 5.74774
N 31.46129 4.59451 1.14402
C 31.16306 5.91403 1.54899
C 31.11643 6.74418 0.32788
C 31.37006 5.83846 -0.71319
C 31.54125 4.53218 -0.18044
C 30.81861 8.13522 0.27851
C 31.52136 5.68852 -2.14264
O 31.56639 6.46321 -3.09740
C 31.51417 4.13788 -2.49168
C 32.66362 3.86608 -3.42302
O 33.83725 4.00527 -3.03595
O 32.19613 3.28126 -4.54097
C 33.30035 2.98203 -5.49122
H 30.61892 -1.46028 1.51185
H 31.02503 2.18075 6.57046
H 30.84071 7.31439 2.95847
H 30.84475 1.08162 -2.71449
H 31.09566 -1.15119 -1.01488
H 28.82274 0.69752 -1.61174
H 28.78094 -0.03626 0.00508
H 28.79366 -1.09079 -1.37602
H 33.24914 -0.18808 -1.38312
H 33.50043 1.31344 -2.34619
H 32.01886 -0.52101 -3.94221
H 33.06841 -1.50845 -2.98917
H 31.27287 -2.82845 2.97513
H 30.81084 -2.91027 4.64217
H 32.54922 -2.91102 4.26164
H 31.56125 -2.56807 6.71465
H 32.61948 -1.92714 8.09887
H 33.23936 -2.15001 6.43769
H 31.30768 4.68119 6.97980
H 29.74917 6.58899 5.31004
H 29.28692 4.63794 8.00145
H 28.65205 3.80037 6.54151
H 28.54007 5.48313 6.64836
H 31.54527 7.27685 6.94487
H 31.63752 8.05057 5.37394
H 33.24102 5.95369 6.64436
H 33.83541 7.39014 5.73434
H 33.21545 5.90758 4.87878
H 31.52656 8.58104 -0.40744
H 30.87930 8.59006 1.26503
H 29.79186 8.10169 -0.09557
H 30.55185 3.91009 -2.95171
H 33.04355 3.46177 -6.44074
H 33.40132 1.88042 -5.49456
H 34.26976 3.42158 -5.28756

