%nproc=24
%mem=175gb
#p cam-b3lyp/Def2SVP td=(nstates=5)

TDDFT excited states in gaussian

0 1
Mg 0.00000 0.00000 0.00000
C -0.21700 -2.21800 2.80100
C -1.25500 2.44200 2.02600
C -0.24500 1.85000 -2.56400
C 0.14600 -2.82400 -2.03700
N -0.61700 -0.00900 2.12600
C -0.59400 -0.90800 3.10500
C -0.93600 -0.30900 4.50200
C -1.77300 0.96400 4.03200
C -1.15500 1.16800 2.66000
C -3.26300 0.68500 3.86300
C 0.34500 0.11000 5.29900
C 0.12400 0.39700 6.78700
H 1.16800 0.03300 7.73300
N -0.18500 1.96100 -0.15200
C -0.70300 2.80000 0.77700
C -0.62000 4.15600 0.19300
C -0.18700 4.01500 -1.22500
C -0.21400 2.58300 -1.38000
C -0.88700 5.40600 0.97400
C 0.18100 5.01300 -2.27700
O 0.30300 4.69000 -3.50800
C 0.31000 6.41400 -1.83700
N -0.26500 -0.41300 -2.02900
C -0.27900 0.56900 -2.93700
C -0.19600 0.02400 -4.33200
C 0.12400 -1.53300 -4.18000
C 0.08600 -1.63200 -2.63500
C -1.45100 0.20500 -5.19700
C 1.37300 -2.07000 -4.92300
C 2.62600 -1.49000 -4.30600
N 0.15000 -2.14400 0.30300
C 0.17300 -3.13600 -0.68800
C 0.17300 -4.43800 0.00400
C 0.13300 -4.11100 1.35800
C 0.08300 -2.69500 1.50200
C 0.14900 -5.71500 -0.62300
C 0.09600 -4.62900 2.71600
O 0.20800 -5.74700 3.22100
C -0.25500 -3.42800 3.70100
C 0.71700 -3.48200 4.84800
O 1.93100 -3.25500 4.66900
O 0.03800 -3.55600 6.00300
C 0.94300 -3.58300 7.18300
H -1.85900 3.22000 2.49700
H -0.21800 2.45300 -3.47400
H 0.27600 -3.74700 -2.60500
H -1.55400 -0.94900 5.13200
H -1.58500 1.83100 4.66500
H -3.48400 -0.37700 3.96900
H -3.51100 1.02700 2.85800
H -3.85200 1.30100 4.54300
H 0.66900 1.09600 4.96600
H 1.13000 -0.63900 5.18900
H -0.84400 0.02600 7.12500
H 0.06200 1.47700 6.92100
H -1.34400 5.18600 1.93800
H -1.65100 5.96300 0.43200
H 0.00700 6.02000 1.08400
H -0.63500 6.74400 -1.40500
H 0.66500 6.97000 -2.70400
H 1.04800 6.46600 -1.03600
H 0.60800 0.50100 -4.89100
H -0.69200 -2.15600 -4.54700
H -1.26700 0.74000 -6.12900
H -2.20400 0.71400 -4.59600
H -1.96700 -0.72000 -5.45300
H 1.35600 -1.75900 -5.96700
H 1.45200 -3.15700 -4.90200
H 2.71400 -0.52200 -4.79800
H 3.48700 -2.12100 -4.52900
H 2.49500 -1.30300 -3.24000
H 0.86700 -6.33300 -0.08400
H 0.40400 -5.64200 -1.68000
H -0.89100 -5.99900 -0.46300
H -1.28300 -3.58100 4.02800
H 0.69800 -4.47800 7.75500
H 0.83300 -2.61900 7.68000
H 2.00000 -3.75400 6.97600
Mg 15.76780 1.42787 1.20385
C 17.25603 -0.10007 4.08996
C 13.26741 2.51469 3.25359
C 14.20450 2.39689 -1.38159
C 17.71654 -0.69705 -0.75392
N 15.41860 1.17645 3.37344
C 16.08372 0.62884 4.37946
C 15.50087 0.94407 5.78320
C 13.98706 1.25934 5.34976
C 14.23386 1.71358 3.91260
C 13.10148 0.02488 5.31509
C 16.18065 2.19338 6.44587
C 15.88142 2.37362 7.93574
H 16.93304 2.90668 8.79737
N 14.27556 2.72257 1.01532
C 13.36865 3.06150 1.95549
C 12.47051 4.03519 1.31560
C 12.82185 4.11923 -0.12808
C 13.78835 3.04398 -0.22719
C 11.45740 4.83424 2.08276
C 12.35461 5.01042 -1.23878
O 12.61797 4.75125 -2.46610
C 11.50090 6.14406 -0.85467
N 15.77494 0.78285 -0.77257
C 15.04127 1.41159 -1.70763
C 15.41555 0.95018 -3.09594
C 16.72690 0.05352 -2.91171
C 16.83702 0.07970 -1.37140
C 14.34959 0.14568 -3.83952
C 17.97385 0.44997 -3.74874
C 18.51023 1.78212 -3.27646
N 17.35759 0.00836 1.55826
C 18.01559 -0.79244 0.59917
C 18.94028 -1.68006 1.33369
C 18.73773 -1.34747 2.68159
C 17.74153 -0.33897 2.78154
C 19.78072 -2.67060 0.75177
C 19.13250 -1.62772 4.04333
O 19.99767 -2.32551 4.57086
C 18.09992 -0.92202 5.02423
C 18.88561 -0.19549 6.08128
O 19.60768 0.77107 5.77963
O 18.48898 -0.61999 7.29489
C 19.23193 0.07974 8.37665
H 12.32222 2.70995 3.76091
H 13.77504 2.77216 -2.31337
H 18.42960 -1.31936 -1.29885
H 15.52299 0.11544 6.48080
H 13.56816 2.07060 5.93945
H 13.66704 -0.88127 5.47375
H 12.64397 0.01850 4.33443
H 12.28039 0.12979 6.03004
H 15.71687 3.10576 6.04937
H 17.24179 2.17730 6.28979
H 15.44079 1.47264 8.37962
H 15.10374 3.13356 8.04404
H 11.31537 4.43747 3.09558
H 10.49023 4.67954 1.59234
H 11.68247 5.90286 2.09115
H 10.61328 5.77238 -0.34827
H 11.34275 6.71471 -1.77185
H 12.04296 6.75988 -0.12835
H 15.65305 1.79343 -3.73282
H 16.54768 -0.99376 -3.19619
H 14.06908 0.58859 -4.81380
H 13.48219 0.05473 -3.19931
H 14.60597 -0.89500 -4.03043
H 17.69951 0.58036 -4.79845
H 18.76994 -0.28621 -3.71299
H 17.88021 2.50340 -3.80553
H 19.55649 1.89388 -3.55376
H 18.33652 1.91800 -2.20268
H 20.74294 -2.58809 1.23945
H 19.86684 -2.53656 -0.32451
H 19.22338 -3.57515 1.00948
H 17.46604 -1.70156 5.44862
H 19.69286 -0.69324 8.99932
H 18.49442 0.74523 8.86342
H 20.09773 0.66602 8.09183

