%nproc=24
%mem=175gb
#p cam-b3lyp/Def2SVP td=(nstates=5)

TDDFT excited states in gaussian

0 1
Mg 8.94221 0.79741 0.67781
C 9.04727 0.32523 -2.87818
C 8.33927 -2.54844 0.95409
C 8.39741 1.25182 3.77040
C 8.41380 4.18855 0.07226
N 8.74227 -0.80021 -0.83872
C 8.86277 -0.87207 -2.15579
C 8.86123 -2.31664 -2.72394
C 8.07099 -3.04379 -1.52993
C 8.43018 -2.09680 -0.38675
C 6.56197 -3.02619 -1.70851
C 10.31027 -2.89523 -2.88983
C 10.40009 -4.17517 -3.72375
H 11.57137 -4.37152 -4.57346
N 8.92806 -0.49597 2.18298
C 8.68738 -1.82209 2.11408
C 8.77277 -2.31882 3.49616
C 8.92048 -1.15060 4.40619
C 8.72931 -0.06121 3.46983
C 8.79228 -3.78095 3.83558
C 9.17697 -1.03349 5.87816
O 9.03058 0.07719 6.50089
C 9.51389 -2.27730 6.58591
N 8.26387 2.43503 1.76428
C 8.16698 2.38347 3.10438
C 7.92434 3.75539 3.68693
C 8.12019 4.77827 2.47327
C 8.36522 3.76981 1.32943
C 6.55109 3.97548 4.32108
C 9.14611 5.92624 2.67898
C 10.54529 5.35959 2.76017
N 8.94235 2.08625 -1.05625
C 8.67145 3.47174 -1.08928
C 8.67758 3.88285 -2.50822
C 8.93084 2.69417 -3.20921
C 9.05251 1.61459 -2.29313
C 8.42006 5.19536 -2.99516
C 9.11238 2.10532 -4.51650
O 9.20212 2.54457 -5.66225
C 9.07025 0.52333 -4.36843
C 10.23381 -0.04590 -5.13303
O 11.40118 0.18405 -4.77113
O 9.77728 -0.93964 -6.02924
C 10.89534 -1.53995 -6.80475
H 7.92229 -3.53844 1.14095
H 8.30777 1.48381 4.83418
H 8.35445 5.24616 -0.19346
H 8.32117 -2.43789 -3.65529
H 8.46839 -4.03763 -1.34093
H 6.26316 -2.42223 -2.55236
H 6.16181 -2.61728 -0.78998
H 6.17838 -4.04828 -1.77568
H 10.65624 -3.27761 -1.92089
H 10.97263 -2.15404 -3.29300
H 9.47931 -4.36445 -4.28880
H 10.47750 -5.02737 -3.04420
H 8.50218 -4.39740 2.97580
H 7.99790 -3.94917 4.57078
H 9.74426 -4.10115 4.26439
H 8.70730 -2.99532 6.45819
H 9.74929 -1.97693 7.60877
H 10.40265 -2.71595 6.11867
H 8.65029 3.98199 4.45812
H 7.18655 5.30707 2.23138
H 6.60502 4.29644 5.37850
H 5.98242 3.05957 4.23022
H 5.91501 4.69427 3.80732
H 8.96117 6.43371 3.62894
H 9.11295 6.68000 1.89941
H 10.62601 5.05046 3.80660
H 11.28216 6.12209 2.51590
H 10.64182 4.45939 2.14214
H 9.15658 5.39277 -3.76267
H 8.46961 5.93256 -2.19651
H 7.40212 5.06706 -3.37278
H 8.11332 0.18249 -4.76556
H 10.67507 -1.37362 -7.86376
H 10.96550 -2.58996 -6.46372
H 11.87146 -1.07750 -6.71659

