%nproc=24
%mem=175gb
#p cam-b3lyp/Def2SVP td=(nstates=5)

TDDFT excited states in gaussian

0 1
Mg 15.77346 1.41519 1.20422
C 15.96388 -1.93744 -0.06175
C 14.78474 0.07561 4.18123
C 15.16265 4.36068 2.21341
C 15.65706 2.50916 -2.10265
N 15.45342 -0.67511 1.85267
C 15.61661 -1.86937 1.30361
C 15.47364 -3.05704 2.29283
C 14.55980 -2.33852 3.40075
C 14.97884 -0.88952 3.16096
C 13.07069 -2.45745 3.12194
C 16.85315 -3.50700 2.88992
C 16.82997 -4.85163 3.62012
H 18.00391 -5.71505 3.52608
N 15.55369 2.12216 3.04554
C 15.16712 1.43445 4.14049
C 15.14131 2.41088 5.24052
C 15.38464 3.76451 4.67201
C 15.35511 3.46432 3.25459
C 14.98161 2.01215 6.67890
C 15.59475 5.10908 5.29986
O 15.55087 6.18853 4.61016
C 15.76045 5.13188 6.76051
N 15.24298 3.16378 0.21258
C 15.08832 4.31902 0.88297
C 14.98008 5.48952 -0.06497
C 15.33813 4.90631 -1.51039
C 15.51199 3.41559 -1.14583
C 13.61679 6.17875 -0.11798
C 16.47870 5.61397 -2.29206
C 17.80035 5.38785 -1.59385
N 15.98779 0.50513 -0.74357
C 15.87720 1.14159 -1.99927
C 15.98561 0.09017 -3.03134
C 16.12983 -1.09735 -2.29819
C 16.09226 -0.80894 -0.90718
C 15.89786 0.29262 -4.43755
C 16.29464 -2.53055 -2.38464
O 16.47852 -3.33007 -3.30153
C 16.06767 -3.15337 -0.94001
C 17.18833 -4.11951 -0.66942
O 18.35912 -3.71477 -0.55975
O 16.66898 -5.32414 -0.37020
C 17.74136 -6.31377 -0.08309
H 14.25121 -0.22369 5.08381
H 15.05818 5.40800 2.50613
H 15.72846 2.78070 -3.15803
H 14.96032 -3.92283 1.89198
H 14.83425 -2.65375 4.40408
H 12.87563 -2.90552 2.15896
H 12.68369 -1.44740 3.15463
H 12.57664 -2.99598 3.93572
H 17.11522 -2.84434 3.72475
H 17.61057 -3.52121 2.13049
H 15.91658 -5.42039 3.40761
H 16.78353 -4.66191 4.69523
H 14.65748 0.96839 6.77337
H 14.14502 2.59381 7.08097
H 15.87357 2.21778 7.27453
H 14.88330 4.69333 7.23036
H 15.98803 6.16944 7.01264
H 16.61141 4.49473 7.02606
H 15.69619 6.26109 0.18992
H 14.48068 4.96400 -2.19689
H 13.66519 7.26006 0.11114
H 12.95197 5.67364 0.57007
H 13.08697 6.08217 -1.06410
H 16.31531 6.69438 -2.30489
H 16.56183 5.28857 -3.32366
H 17.80435 6.15874 -0.81745
H 18.62792 5.52200 -2.28752
H 17.81840 4.41379 -1.09133
H 16.68158 -0.30239 -4.88727
H 15.99925 1.34490 -4.69483
H 14.88756 -0.08044 -4.62564
H 15.09462 -3.64604 -0.94486
H 17.58313 -7.16102 -0.75749
H 17.67860 -6.51572 1.00274
H 18.75940 -6.03510 -0.32884

