%nproc=24
%mem=175gb
#p cam-b3lyp/Def2SVP td=(nstates=5)

TDDFT excited states in gaussian

0 1
Mg 0.00000 0.00000 0.00000
C -0.21700 -2.21800 2.80100
C -1.25500 2.44200 2.02600
C -0.24500 1.85000 -2.56400
C 0.14600 -2.82400 -2.03700
N -0.61700 -0.00900 2.12600
C -0.59400 -0.90800 3.10500
C -0.93600 -0.30900 4.50200
C -1.77300 0.96400 4.03200
C -1.15500 1.16800 2.66000
C -3.26300 0.68500 3.86300
C 0.34500 0.11000 5.29900
C 0.12400 0.39700 6.78700
H 1.16800 0.03300 7.73300
N -0.18500 1.96100 -0.15200
C -0.70300 2.80000 0.77700
C -0.62000 4.15600 0.19300
C -0.18700 4.01500 -1.22500
C -0.21400 2.58300 -1.38000
C -0.88700 5.40600 0.97400
C 0.18100 5.01300 -2.27700
O 0.30300 4.69000 -3.50800
C 0.31000 6.41400 -1.83700
N -0.26500 -0.41300 -2.02900
C -0.27900 0.56900 -2.93700
C -0.19600 0.02400 -4.33200
C 0.12400 -1.53300 -4.18000
C 0.08600 -1.63200 -2.63500
C -1.45100 0.20500 -5.19700
C 1.37300 -2.07000 -4.92300
C 2.62600 -1.49000 -4.30600
N 0.15000 -2.14400 0.30300
C 0.17300 -3.13600 -0.68800
C 0.17300 -4.43800 0.00400
C 0.13300 -4.11100 1.35800
C 0.08300 -2.69500 1.50200
C 0.14900 -5.71500 -0.62300
C 0.09600 -4.62900 2.71600
O 0.20800 -5.74700 3.22100
C -0.25500 -3.42800 3.70100
C 0.71700 -3.48200 4.84800
O 1.93100 -3.25500 4.66900
O 0.03800 -3.55600 6.00300
C 0.94300 -3.58300 7.18300
H -1.85900 3.22000 2.49700
H -0.21800 2.45300 -3.47400
H 0.27600 -3.74700 -2.60500
H -1.55400 -0.94900 5.13200
H -1.58500 1.83100 4.66500
H -3.48400 -0.37700 3.96900
H -3.51100 1.02700 2.85800
H -3.85200 1.30100 4.54300
H 0.66900 1.09600 4.96600
H 1.13000 -0.63900 5.18900
H -0.84400 0.02600 7.12500
H 0.06200 1.47700 6.92100
H -1.34400 5.18600 1.93800
H -1.65100 5.96300 0.43200
H 0.00700 6.02000 1.08400
H -0.63500 6.74400 -1.40500
H 0.66500 6.97000 -2.70400
H 1.04800 6.46600 -1.03600
H 0.60800 0.50100 -4.89100
H -0.69200 -2.15600 -4.54700
H -1.26700 0.74000 -6.12900
H -2.20400 0.71400 -4.59600
H -1.96700 -0.72000 -5.45300
H 1.35600 -1.75900 -5.96700
H 1.45200 -3.15700 -4.90200
H 2.71400 -0.52200 -4.79800
H 3.48700 -2.12100 -4.52900
H 2.49500 -1.30300 -3.24000
H 0.86700 -6.33300 -0.08400
H 0.40400 -5.64200 -1.68000
H -0.89100 -5.99900 -0.46300
H -1.28300 -3.58100 4.02800
H 0.69800 -4.47800 7.75500
H 0.83300 -2.61900 7.68000
H 2.00000 -3.75400 6.97600
Mg 13.14496 1.19099 1.00025
C 12.63955 1.51378 4.53853
C 11.99707 4.38850 0.69552
C 13.15136 0.78781 -2.14694
C 13.15221 -2.26403 1.45682
N 12.44013 2.65902 2.49704
C 12.35082 2.69153 3.81814
C 12.00588 4.08645 4.40534
C 11.28192 4.71693 3.11800
C 11.96969 3.89990 2.02616
C 9.79111 4.42727 3.06379
C 13.28678 4.90184 4.80088
C 13.02127 6.13889 5.66167
H 14.00028 6.49892 6.68362
N 13.11969 2.52830 -0.46588
C 12.63684 3.78731 -0.41064
C 12.83365 4.35299 -1.75431
C 13.32127 3.27085 -2.65203
C 13.19373 2.12380 -1.77561
C 12.63941 5.80970 -2.06037
C 13.80816 3.26683 -4.06947
O 13.95715 2.17684 -4.72716
C 14.01607 4.58099 -4.69496
N 12.93954 -0.48954 -0.20637
C 13.03298 -0.39551 -1.54441
C 13.12946 -1.76110 -2.18179
C 13.32564 -2.78741 -0.97110
C 13.21439 -1.80414 0.21473
C 11.92660 -2.18955 -3.02200
C 14.56029 -3.72751 -1.03845
C 15.83115 -2.92148 -0.89488
N 13.12215 -0.15459 2.69050
C 13.10311 -1.56618 2.65682
C 12.97450 -2.03328 4.05242
C 12.90392 -0.85138 4.80516
C 12.96263 0.27293 3.93800
C 12.88864 -3.39117 4.47061
C 12.78239 -0.29927 6.13524
O 12.78032 -0.76712 7.27315
C 12.47851 1.25592 6.01101
C 13.39543 1.98516 6.95440
O 14.62543 1.97975 6.77085
O 12.65886 2.74388 7.78638
C 13.52432 3.49522 8.73416
H 11.44083 5.29756 0.46507
H 13.26227 0.59182 -3.21594
H 13.24574 -3.32656 1.69127
H 11.32191 4.06920 5.24537
H 11.51739 5.77249 3.00982
H 9.48513 3.74296 3.84111
H 9.61047 3.99634 2.08772
H 9.22423 5.36230 3.09003
H 13.69688 5.38211 3.90316
H 14.00513 4.27074 5.28701
H 12.00858 6.13834 6.08286
H 13.04309 7.02117 5.01737
H 12.11996 6.32649 -1.24397
H 11.94455 5.86909 -2.90506
H 13.57075 6.31066 -2.33299
H 13.08358 5.14015 -4.67894
H 14.44941 4.37283 -5.67514
H 14.73290 5.14705 -4.08970
H 13.98967 -1.82211 -2.83709
H 12.47714 -3.48191 -0.88413
H 12.19222 -2.44819 -4.06441
H 11.19532 -1.39243 -3.00252
H 11.36176 -3.03101 -2.62440
H 14.61134 -4.21626 -2.01450
H 14.54908 -4.50973 -0.28679
H 16.00783 -2.55622 -1.91098
H 16.64915 -3.55334 -0.55478
H 15.67221 -2.04703 -0.25323
H 13.52772 -3.49086 5.33787
H 13.18686 -4.07160 3.67572
H 11.81996 -3.46027 4.69067
H 11.42808 1.40566 6.26349
H 13.18436 3.24540 9.74396
H 13.45375 4.55555 8.42681
H 14.56990 3.21533 8.78772

