%nproc=24
%mem=175gb
#p cam-b3lyp/Def2SVP td=(nstates=5)

TDDFT excited states in gaussian

0 1
Mg 0.00000 0.00000 0.00000
C -0.21700 -2.21800 2.80100
C -1.25500 2.44200 2.02600
C -0.24500 1.85000 -2.56400
C 0.14600 -2.82400 -2.03700
N -0.61700 -0.00900 2.12600
C -0.59400 -0.90800 3.10500
C -0.93600 -0.30900 4.50200
C -1.77300 0.96400 4.03200
C -1.15500 1.16800 2.66000
C -3.26300 0.68500 3.86300
C 0.34500 0.11000 5.29900
C 0.12400 0.39700 6.78700
H 1.16800 0.03300 7.73300
N -0.18500 1.96100 -0.15200
C -0.70300 2.80000 0.77700
C -0.62000 4.15600 0.19300
C -0.18700 4.01500 -1.22500
C -0.21400 2.58300 -1.38000
C -0.88700 5.40600 0.97400
C 0.18100 5.01300 -2.27700
O 0.30300 4.69000 -3.50800
C 0.31000 6.41400 -1.83700
N -0.26500 -0.41300 -2.02900
C -0.27900 0.56900 -2.93700
C -0.19600 0.02400 -4.33200
C 0.12400 -1.53300 -4.18000
C 0.08600 -1.63200 -2.63500
C -1.45100 0.20500 -5.19700
C 1.37300 -2.07000 -4.92300
C 2.62600 -1.49000 -4.30600
N 0.15000 -2.14400 0.30300
C 0.17300 -3.13600 -0.68800
C 0.17300 -4.43800 0.00400
C 0.13300 -4.11100 1.35800
C 0.08300 -2.69500 1.50200
C 0.14900 -5.71500 -0.62300
C 0.09600 -4.62900 2.71600
O 0.20800 -5.74700 3.22100
C -0.25500 -3.42800 3.70100
C 0.71700 -3.48200 4.84800
O 1.93100 -3.25500 4.66900
O 0.03800 -3.55600 6.00300
C 0.94300 -3.58300 7.18300
H -1.85900 3.22000 2.49700
H -0.21800 2.45300 -3.47400
H 0.27600 -3.74700 -2.60500
H -1.55400 -0.94900 5.13200
H -1.58500 1.83100 4.66500
H -3.48400 -0.37700 3.96900
H -3.51100 1.02700 2.85800
H -3.85200 1.30100 4.54300
H 0.66900 1.09600 4.96600
H 1.13000 -0.63900 5.18900
H -0.84400 0.02600 7.12500
H 0.06200 1.47700 6.92100
H -1.34400 5.18600 1.93800
H -1.65100 5.96300 0.43200
H 0.00700 6.02000 1.08400
H -0.63500 6.74400 -1.40500
H 0.66500 6.97000 -2.70400
H 1.04800 6.46600 -1.03600
H 0.60800 0.50100 -4.89100
H -0.69200 -2.15600 -4.54700
H -1.26700 0.74000 -6.12900
H -2.20400 0.71400 -4.59600
H -1.96700 -0.72000 -5.45300
H 1.35600 -1.75900 -5.96700
H 1.45200 -3.15700 -4.90200
H 2.71400 -0.52200 -4.79800
H 3.48700 -2.12100 -4.52900
H 2.49500 -1.30300 -3.24000
H 0.86700 -6.33300 -0.08400
H 0.40400 -5.64200 -1.68000
H -0.89100 -5.99900 -0.46300
H -1.28300 -3.58100 4.02800
H 0.69800 -4.47800 7.75500
H 0.83300 -2.61900 7.68000
H 2.00000 -3.75400 6.97600
Mg 31.52299 2.84122 2.39147
C 30.93665 0.03767 0.22921
C 31.24768 4.83322 -0.36366
C 32.47942 5.28003 4.18169
C 32.86209 0.60202 4.70199
N 31.13974 2.37789 0.26292
C 30.87147 1.28224 -0.43127
C 30.43455 1.54107 -1.89813
C 31.12223 2.97759 -2.10395
C 31.14333 3.44886 -0.65132
C 32.55632 2.89285 -2.59948
C 28.87517 1.62343 -2.05165
C 28.36701 1.56540 -3.49393
H 27.10538 0.88000 -3.76033
N 31.34855 4.79616 2.09762
C 31.22295 5.43318 0.91453
C 31.15048 6.86705 1.23536
C 31.40908 7.03565 2.69118
C 31.78447 5.68288 3.05062
C 30.78090 7.91016 0.22107
C 31.34337 8.22122 3.60568
O 31.83974 8.18875 4.78694
C 30.76424 9.45060 3.04468
N 32.71562 2.96094 4.09018
C 32.93107 4.13872 4.70202
C 33.58454 3.94212 6.04913
C 33.54298 2.36670 6.32098
C 32.92600 1.89569 4.98573
C 35.02428 4.44123 6.16928
C 32.88225 1.89843 7.64644
C 31.39894 2.18853 7.61432
N 31.68642 0.69355 2.56143
C 32.30807 -0.03513 3.59905
C 32.26644 -1.46106 3.21511
C 31.63903 -1.46079 1.96018
C 31.33084 -0.12688 1.57913
C 32.80992 -2.54105 3.96635
C 31.17695 -2.28468 0.86638
O 31.09027 -3.49572 0.66741
C 30.81548 -1.34031 -0.35996
C 29.47163 -1.76029 -0.88929
O 28.44914 -1.62892 -0.19369
O 29.58303 -2.04279 -2.20007
C 28.27353 -2.45376 -2.77292
H 31.40574 5.52473 -1.19174
H 32.73457 6.07491 4.88634
H 33.17076 -0.16747 5.41283
H 30.82609 0.83453 -2.62013
H 30.49828 3.63131 -2.70787
H 32.91645 1.87497 -2.61872
H 33.14124 3.48815 -1.91061
H 32.64811 3.38192 -3.57350
H 28.54091 2.63166 -1.77510
H 28.39417 0.86264 -1.46816
H 29.14304 1.22670 -4.19106
H 28.13717 2.58203 -3.82204
H 30.80943 7.50736 -0.79890
H 31.57327 8.66631 0.23675
H 29.82684 8.39338 0.44227
H 31.33580 9.75272 2.17032
H 30.72145 10.15863 3.87459
H 29.74862 9.23169 2.69654
H 33.02617 4.44786 6.82730
H 34.55341 1.93487 6.36991
H 35.16452 5.17748 6.98313
H 35.31920 4.86475 5.21839
H 35.77172 3.66372 6.31766
H 33.28987 2.45881 8.49141
H 33.03355 0.84473 7.85577
H 31.34631 3.23883 7.91629
H 30.86822 1.54886 8.31661
H 31.00635 2.11905 6.59320
H 32.07747 -3.33693 3.94199
H 33.03778 -2.24050 4.98690
H 33.71426 -2.74591 3.38716
H 31.60330 -1.45540 -1.10539
H 28.42113 -3.43408 -3.23648
H 27.96414 -1.62433 -3.43630
H 27.46797 -2.66662 -2.07995

