%nproc=24
%mem=175gb
#p cam-b3lyp/Def2SVP td=(nstates=5)

TDDFT excited states in gaussian

0 1
Mg 0.00000 0.00000 0.00000
C -0.21700 -2.21800 2.80100
C -1.25500 2.44200 2.02600
C -0.24500 1.85000 -2.56400
C 0.14600 -2.82400 -2.03700
N -0.61700 -0.00900 2.12600
C -0.59400 -0.90800 3.10500
C -0.93600 -0.30900 4.50200
C -1.77300 0.96400 4.03200
C -1.15500 1.16800 2.66000
C -3.26300 0.68500 3.86300
C 0.34500 0.11000 5.29900
C 0.12400 0.39700 6.78700
H 1.16800 0.03300 7.73300
N -0.18500 1.96100 -0.15200
C -0.70300 2.80000 0.77700
C -0.62000 4.15600 0.19300
C -0.18700 4.01500 -1.22500
C -0.21400 2.58300 -1.38000
C -0.88700 5.40600 0.97400
C 0.18100 5.01300 -2.27700
O 0.30300 4.69000 -3.50800
C 0.31000 6.41400 -1.83700
N -0.26500 -0.41300 -2.02900
C -0.27900 0.56900 -2.93700
C -0.19600 0.02400 -4.33200
C 0.12400 -1.53300 -4.18000
C 0.08600 -1.63200 -2.63500
C -1.45100 0.20500 -5.19700
C 1.37300 -2.07000 -4.92300
C 2.62600 -1.49000 -4.30600
N 0.15000 -2.14400 0.30300
C 0.17300 -3.13600 -0.68800
C 0.17300 -4.43800 0.00400
C 0.13300 -4.11100 1.35800
C 0.08300 -2.69500 1.50200
C 0.14900 -5.71500 -0.62300
C 0.09600 -4.62900 2.71600
O 0.20800 -5.74700 3.22100
C -0.25500 -3.42800 3.70100
C 0.71700 -3.48200 4.84800
O 1.93100 -3.25500 4.66900
O 0.03800 -3.55600 6.00300
C 0.94300 -3.58300 7.18300
H -1.85900 3.22000 2.49700
H -0.21800 2.45300 -3.47400
H 0.27600 -3.74700 -2.60500
H -1.55400 -0.94900 5.13200
H -1.58500 1.83100 4.66500
H -3.48400 -0.37700 3.96900
H -3.51100 1.02700 2.85800
H -3.85200 1.30100 4.54300
H 0.66900 1.09600 4.96600
H 1.13000 -0.63900 5.18900
H -0.84400 0.02600 7.12500
H 0.06200 1.47700 6.92100
H -1.34400 5.18600 1.93800
H -1.65100 5.96300 0.43200
H 0.00700 6.02000 1.08400
H -0.63500 6.74400 -1.40500
H 0.66500 6.97000 -2.70400
H 1.04800 6.46600 -1.03600
H 0.60800 0.50100 -4.89100
H -0.69200 -2.15600 -4.54700
H -1.26700 0.74000 -6.12900
H -2.20400 0.71400 -4.59600
H -1.96700 -0.72000 -5.45300
H 1.35600 -1.75900 -5.96700
H 1.45200 -3.15700 -4.90200
H 2.71400 -0.52200 -4.79800
H 3.48700 -2.12100 -4.52900
H 2.49500 -1.30300 -3.24000
H 0.86700 -6.33300 -0.08400
H 0.40400 -5.64200 -1.68000
H -0.89100 -5.99900 -0.46300
H -1.28300 -3.58100 4.02800
H 0.69800 -4.47800 7.75500
H 0.83300 -2.61900 7.68000
H 2.00000 -3.75400 6.97600
Mg 8.93791 0.80921 0.68733
C 7.94604 -1.50424 3.24529
C 7.02557 3.14845 2.27021
C 9.42715 2.73749 -1.78447
C 9.80958 -1.94094 -1.26781
N 7.69438 0.71408 2.51403
C 7.44253 -0.20087 3.43803
C 6.67133 0.33048 4.67596
C 5.96482 1.60027 3.99233
C 6.97047 1.86694 2.87419
C 4.62237 1.27372 3.35947
C 7.63237 0.76434 5.83794
C 6.94646 1.00100 7.18526
H 7.66508 0.64190 8.40473
N 8.73301 2.77718 0.53348
C 7.92959 3.57181 1.27129
C 8.12779 4.93497 0.75489
C 8.98934 4.85718 -0.45606
C 9.06787 3.42086 -0.63188
C 7.59097 6.15364 1.44776
C 9.62541 5.90277 -1.32114
O 10.13648 5.61428 -2.46062
C 9.54933 7.28901 -0.83736
N 9.33264 0.45276 -1.32251
C 9.55679 1.46907 -2.17386
C 10.08853 0.96679 -3.49498
C 10.40466 -0.58452 -3.26902
C 9.89502 -0.73808 -1.81917
C 9.15229 1.12593 -4.69270
C 11.84381 -1.06519 -3.60144
C 12.82783 -0.46196 -2.62511
N 9.07225 -1.32723 0.97992
C 9.43363 -2.29849 0.02068
C 9.26822 -3.62144 0.65697
C 8.79635 -3.32662 1.94495
C 8.65694 -1.92022 2.09363
C 9.49743 -4.87962 0.03201
C 8.37437 -3.88589 3.20902
O 8.36098 -5.01466 3.69832
C 7.68476 -2.73753 4.06465
C 8.25513 -2.78846 5.45555
O 9.45502 -2.53056 5.65646
O 7.24936 -2.91884 6.33974
C 7.76411 -2.96286 7.73434
H 6.27916 3.88972 2.55706
H 9.71304 3.36267 -2.63353
H 10.15374 -2.84291 -1.77838
H 5.92136 -0.34567 5.06857
H 5.92213 2.44413 4.67602
H 4.41892 0.21323 3.37079
H 4.68080 1.63690 2.34176
H 3.82822 1.85177 3.84062
H 8.00407 1.77713 5.63587
H 8.42934 0.05643 5.95759
H 5.92764 0.59540 7.20600
H 6.80953 2.07660 7.32075
H 6.85911 5.88748 2.22037
H 7.01139 6.71389 0.70609
H 8.38110 6.79806 1.83905
H 8.50669 7.57041 -0.71019
H 10.13628 7.87803 -1.54477
H 10.01211 7.33928 0.15457
H 11.00584 1.47713 -3.76184
H 9.76745 -1.22570 -3.89567
H 9.59967 1.70506 -5.52248
H 8.23840 1.59398 -4.35173
H 8.78840 0.19376 -5.12147
H 12.13924 -0.71769 -4.59447
H 11.95145 -2.14469 -3.59278
H 13.02099 0.52791 -3.04928
H 13.73777 -1.05706 -2.58139
H 12.36651 -0.31487 -1.64165
H 10.03169 -5.49008 0.74783
H 10.05866 -4.76754 -0.89332
H 8.46732 -5.19817 -0.14870
H 6.61000 -2.92297 4.05587
H 7.38480 -3.88474 8.18595
H 7.45119 -2.00874 8.19854
H 8.83231 -3.08450 7.87071

