%nproc=24
%mem=175gb
#p cam-b3lyp/Def2SVP td=(nstates=5)

TDDFT excited states in gaussian

0 1
Mg 31.54013 2.83249 2.39923
C 31.75225 0.35007 -0.18373
C 30.72066 0.31256 4.54703
C 30.90614 5.03916 4.58923
C 31.24671 5.22569 -0.11716
N 31.29990 0.65399 2.10146
C 31.46622 -0.18456 1.08977
C 31.39692 -1.68533 1.48024
C 30.51782 -1.54569 2.81686
C 30.89086 -0.11684 3.20660
C 29.02077 -1.59547 2.56050
C 32.81259 -2.28981 1.78436
C 32.85483 -3.81711 1.86997
H 34.04346 -4.50913 1.37932
N 31.38797 2.67762 4.37190
C 31.06832 1.57361 5.07921
C 31.06958 1.98613 6.49129
C 31.25438 3.46169 6.54875
C 31.16726 3.79328 5.14072
C 30.98531 1.00622 7.62535
C 31.46090 4.41782 7.68425
O 31.35986 5.68547 7.52396
C 31.69259 3.82272 9.00851
N 30.92341 4.81356 2.26734
C 30.77210 5.56548 3.37171
C 30.59281 7.02283 3.01903
C 30.89821 7.12650 1.45264
C 31.12399 5.63109 1.13932
C 29.21251 7.61233 3.30825
C 31.98469 8.14597 1.01341
C 33.34188 7.69830 1.50639
N 31.68683 2.84900 0.24371
C 31.50385 3.95479 -0.61525
C 31.58997 3.44893 -2.00057
C 31.79577 2.06923 -1.85034
C 31.81496 1.73548 -0.46913
C 31.43326 4.22759 -3.18177
C 31.99053 0.81765 -2.54627
O 32.15130 0.49343 -3.72218
C 31.84471 -0.37020 -1.50026
C 32.99924 -1.31263 -1.70373
O 34.16386 -0.94555 -1.46809
O 32.52294 -2.55009 -1.93218
C 33.63057 -3.52278 -2.12926
H 30.23622 -0.36448 5.25116
H 30.79025 5.85659 5.30468
H 31.26332 5.92381 -0.95682
H 30.88657 -2.31797 0.76394
H 30.84526 -2.24691 3.58003
H 28.79264 -1.59797 1.50500
H 28.61174 -0.71249 3.03389
H 28.57739 -2.44923 3.08091
H 33.09669 -2.03600 2.81373
H 33.53464 -1.94791 1.06856
H 31.94647 -4.27802 1.46328
H 32.85307 -4.10577 2.92386
H 30.69078 0.00941 7.27460
H 30.15437 1.32617 8.26333
H 31.89842 0.97481 8.22361
H 30.84852 3.19015 9.27285
H 31.90669 4.66224 9.67276
H 32.56972 3.16867 8.94953
H 31.30125 7.64086 3.55685
H 30.00915 7.43602 0.88378
H 29.24557 8.49385 3.97601
H 28.59203 6.83533 3.73467
H 28.64244 7.90653 2.42867
H 31.79522 9.12110 1.46879
H 32.02832 8.29496 -0.06031
H 33.36301 8.06422 2.53728
H 34.13346 8.14913 0.91124
H 33.40606 6.60461 1.54343
H 32.20954 3.91371 -3.86687
H 31.49771 5.29235 -2.96752
H 30.42458 3.92916 -3.47971
H 30.88445 -0.85330 -1.68494
H 33.46190 -4.00751 -3.09583
H 33.62233 -4.17062 -1.23261
H 34.62939 -3.12442 -2.26388

