%nproc=24
%mem=175gb
#p cam-b3lyp/Def2SVP td=(nstates=5)

TDDFT excited states in gaussian

0 1
Mg 15.77427 1.41731 1.19102
C 15.49298 4.16725 -1.09759
C 15.28003 -0.65559 -1.47232
C 15.56744 -0.99915 3.23685
C 15.10680 3.67104 3.76413
N 15.44204 1.82270 -0.95782
C 15.41663 2.90458 -1.72151
C 15.38377 2.61499 -3.24618
C 14.74774 1.14124 -3.19737
C 15.21099 0.72112 -1.80397
C 13.22820 1.14063 -3.21590
C 16.81776 2.60095 -3.88296
C 16.84242 2.63190 -5.41273
H 17.91581 3.36625 -6.07683
N 15.95650 -0.53639 0.89361
C 15.73904 -1.20818 -0.25647
C 15.98882 -2.62480 0.05169
C 16.21110 -2.75386 1.51752
C 15.89276 -1.40847 1.95187
C 16.07837 -3.68448 -1.00778
C 16.62731 -3.90196 2.38634
O 16.52667 -3.85124 3.66310
C 17.06842 -5.12169 1.69412
N 15.18511 1.30152 3.18146
C 15.23927 0.13724 3.85186
C 15.03274 0.35025 5.33252
C 15.06950 1.93450 5.54790
C 15.20784 2.38664 4.07759
C 13.73415 -0.21169 5.91069
C 16.08630 2.47998 6.58774
C 17.49801 2.25926 6.09403
N 15.55273 3.55952 1.36386
C 15.24924 4.29426 2.53096
C 15.08817 5.70611 2.12703
C 15.28801 5.69111 0.73839
C 15.53482 4.36061 0.30442
C 14.74904 6.78512 2.99124
C 15.33578 6.49673 -0.46053
O 15.28758 7.70272 -0.69923
C 15.34541 5.52773 -1.72043
C 16.42887 5.99171 -2.65497
O 17.62391 5.93341 -2.31574
O 15.89523 6.22214 -3.86844
C 16.93295 6.67396 -4.83324
H 14.90847 -1.38262 -2.19500
H 15.59175 -1.77979 4.00071
H 14.99483 4.44974 4.52160
H 14.74614 3.27631 -3.82053
H 15.18561 0.49677 -3.95520
H 12.82396 2.13906 -3.13935
H 12.92390 0.54310 -2.36655
H 12.86222 0.61367 -4.10173
H 17.27788 1.62002 -3.70744
H 17.41452 3.40374 -3.49563
H 15.86884 2.90875 -5.83515
H 17.01388 1.61629 -5.77764
H 15.70800 -3.31977 -1.97381
H 15.37474 -4.47616 -0.72847
H 17.07904 -4.11402 -1.09039
H 16.26870 -5.48116 1.05092
H 17.40959 -5.79714 2.48104
H 17.90908 -4.86752 1.03890
H 15.83489 -0.10075 5.90370
H 14.10325 2.31962 5.90552
H 13.89842 -0.92452 6.74073
H 13.17930 -0.68199 5.10975
H 13.02905 0.53443 6.27311
H 15.99715 1.93119 7.52850
H 15.94983 3.53210 6.81447
H 17.70161 1.22394 6.38341
H 18.18603 2.94768 6.58060
H 17.54498 2.31107 5.00006
H 15.39093 7.61333 2.72188
H 14.87092 6.51040 4.03692
H 13.69846 6.92647 2.72373
H 14.35798 5.57910 -2.18078
H 16.59245 7.62922 -5.24460
H 17.06388 5.83713 -5.54481
H 17.90235 6.94896 -4.43438

