%nproc=24
%mem=175gb
#p cam-b3lyp/Def2SVP td=(nstates=5)

TDDFT excited states in gaussian

0 1
Mg 0.00000 0.00000 0.00000
C -0.21700 -2.21800 2.80100
C -1.25500 2.44200 2.02600
C -0.24500 1.85000 -2.56400
C 0.14600 -2.82400 -2.03700
N -0.61700 -0.00900 2.12600
C -0.59400 -0.90800 3.10500
C -0.93600 -0.30900 4.50200
C -1.77300 0.96400 4.03200
C -1.15500 1.16800 2.66000
C -3.26300 0.68500 3.86300
C 0.34500 0.11000 5.29900
C 0.12400 0.39700 6.78700
H 1.16800 0.03300 7.73300
N -0.18500 1.96100 -0.15200
C -0.70300 2.80000 0.77700
C -0.62000 4.15600 0.19300
C -0.18700 4.01500 -1.22500
C -0.21400 2.58300 -1.38000
C -0.88700 5.40600 0.97400
C 0.18100 5.01300 -2.27700
O 0.30300 4.69000 -3.50800
C 0.31000 6.41400 -1.83700
N -0.26500 -0.41300 -2.02900
C -0.27900 0.56900 -2.93700
C -0.19600 0.02400 -4.33200
C 0.12400 -1.53300 -4.18000
C 0.08600 -1.63200 -2.63500
C -1.45100 0.20500 -5.19700
C 1.37300 -2.07000 -4.92300
C 2.62600 -1.49000 -4.30600
N 0.15000 -2.14400 0.30300
C 0.17300 -3.13600 -0.68800
C 0.17300 -4.43800 0.00400
C 0.13300 -4.11100 1.35800
C 0.08300 -2.69500 1.50200
C 0.14900 -5.71500 -0.62300
C 0.09600 -4.62900 2.71600
O 0.20800 -5.74700 3.22100
C -0.25500 -3.42800 3.70100
C 0.71700 -3.48200 4.84800
O 1.93100 -3.25500 4.66900
O 0.03800 -3.55600 6.00300
C 0.94300 -3.58300 7.18300
H -1.85900 3.22000 2.49700
H -0.21800 2.45300 -3.47400
H 0.27600 -3.74700 -2.60500
H -1.55400 -0.94900 5.13200
H -1.58500 1.83100 4.66500
H -3.48400 -0.37700 3.96900
H -3.51100 1.02700 2.85800
H -3.85200 1.30100 4.54300
H 0.66900 1.09600 4.96600
H 1.13000 -0.63900 5.18900
H -0.84400 0.02600 7.12500
H 0.06200 1.47700 6.92100
H -1.34400 5.18600 1.93800
H -1.65100 5.96300 0.43200
H 0.00700 6.02000 1.08400
H -0.63500 6.74400 -1.40500
H 0.66500 6.97000 -2.70400
H 1.04800 6.46600 -1.03600
H 0.60800 0.50100 -4.89100
H -0.69200 -2.15600 -4.54700
H -1.26700 0.74000 -6.12900
H -2.20400 0.71400 -4.59600
H -1.96700 -0.72000 -5.45300
H 1.35600 -1.75900 -5.96700
H 1.45200 -3.15700 -4.90200
H 2.71400 -0.52200 -4.79800
H 3.48700 -2.12100 -4.52900
H 2.49500 -1.30300 -3.24000
H 0.86700 -6.33300 -0.08400
H 0.40400 -5.64200 -1.68000
H -0.89100 -5.99900 -0.46300
H -1.28300 -3.58100 4.02800
H 0.69800 -4.47800 7.75500
H 0.83300 -2.61900 7.68000
H 2.00000 -3.75400 6.97600
Mg 8.92549 0.80662 0.67312
C 8.81705 -1.96999 -1.59794
C 9.12695 2.84021 -2.05791
C 9.47520 3.23220 2.64337
C 9.85751 -1.44582 3.16381
N 8.95815 0.37280 -1.49551
C 8.84909 -0.71569 -2.24227
C 8.68904 -0.44007 -3.76147
C 9.37100 1.01282 -3.81542
C 9.10913 1.45926 -2.37848
C 10.87405 0.96439 -4.03413
C 7.18459 -0.38523 -4.20376
C 6.95701 -0.42816 -5.71641
H 5.78316 -1.13313 -6.22393
N 8.76578 2.76261 0.37786
C 8.84990 3.41742 -0.79918
C 8.68676 4.84387 -0.47856
C 8.66425 4.99227 1.00204
C 8.99565 3.64101 1.40746
C 8.49063 5.89699 -1.53018
C 8.40207 6.16038 1.90369
O 8.66897 6.11713 3.15657
C 7.91110 7.38784 1.26043
N 9.77585 0.92003 2.56690
C 9.84663 2.09102 3.22394
C 10.24040 1.88386 4.66700
C 10.18368 0.30347 4.90519
C 9.83837 -0.15625 3.47173
C 11.62069 2.40856 5.06182
C 9.29694 -0.20030 6.07676
C 7.83983 0.06158 5.77075
N 9.10189 -1.34009 0.84208
C 9.53421 -2.07443 1.96811
C 9.59694 -3.49406 1.56420
C 9.21587 -3.48425 0.21394
C 8.95494 -2.15017 -0.20035
C 10.01395 -4.57615 2.38961
C 8.98529 -4.29791 -0.95802
O 8.96436 -5.50679 -1.18585
C 8.83905 -3.33967 -2.21770
C 7.62781 -3.77636 -2.99534
O 6.49045 -3.67681 -2.50228
O 7.98903 -4.03397 -4.26559
C 6.81949 -4.46023 -5.07941
H 9.42193 3.54883 -2.83233
H 9.57610 4.01958 3.39392
H 10.04459 -2.22136 3.90961
H 9.22450 -1.12633 -4.40653
H 8.85685 1.66468 -4.51692
H 11.25394 -0.04585 -3.99903
H 11.30619 1.55891 -3.23987
H 11.13578 1.47189 -4.96702
H 6.78211 0.61143 -3.98142
H 6.61983 -1.16514 -3.73109
H 7.85723 -0.73971 -6.26000
H 6.77016 0.58935 -6.06824
H 8.71866 5.51248 -2.53196
H 9.24903 6.66793 -1.35602
H 7.50152 6.35778 -1.48552
H 8.62946 7.71601 0.51296
H 7.69788 8.08047 2.07693
H 6.98379 7.15537 0.72501
H 9.53505 2.36520 5.33325
H 11.17640 -0.10952 5.13709
H 11.58959 3.13322 5.89727
H 12.07902 2.85406 4.18889
H 12.34420 1.64321 5.33744
H 9.52650 0.35318 6.99061
H 9.42972 -1.25433 6.29669
H 7.70823 1.10530 6.07145
H 7.20129 -0.60026 6.35238
H 7.64711 0.00216 4.69327
H 9.31690 -5.38550 2.21763
H 10.03986 -4.28892 3.43870
H 11.01511 -4.75345 1.98771
H 9.75491 -3.42662 -2.80353
H 7.07306 -5.42936 -5.52007
H 6.62148 -3.62561 -5.77794
H 5.90331 -4.70056 -4.55281

