%nproc=24
%mem=175gb
#p cam-b3lyp/Def2SVP td=(nstates=5)

TDDFT excited states in gaussian

0 1
Mg 0.00000 0.00000 0.00000
C -0.21700 -2.21800 2.80100
C -1.25500 2.44200 2.02600
C -0.24500 1.85000 -2.56400
C 0.14600 -2.82400 -2.03700
N -0.61700 -0.00900 2.12600
C -0.59400 -0.90800 3.10500
C -0.93600 -0.30900 4.50200
C -1.77300 0.96400 4.03200
C -1.15500 1.16800 2.66000
C -3.26300 0.68500 3.86300
C 0.34500 0.11000 5.29900
C 0.12400 0.39700 6.78700
H 1.16800 0.03300 7.73300
N -0.18500 1.96100 -0.15200
C -0.70300 2.80000 0.77700
C -0.62000 4.15600 0.19300
C -0.18700 4.01500 -1.22500
C -0.21400 2.58300 -1.38000
C -0.88700 5.40600 0.97400
C 0.18100 5.01300 -2.27700
O 0.30300 4.69000 -3.50800
C 0.31000 6.41400 -1.83700
N -0.26500 -0.41300 -2.02900
C -0.27900 0.56900 -2.93700
C -0.19600 0.02400 -4.33200
C 0.12400 -1.53300 -4.18000
C 0.08600 -1.63200 -2.63500
C -1.45100 0.20500 -5.19700
C 1.37300 -2.07000 -4.92300
C 2.62600 -1.49000 -4.30600
N 0.15000 -2.14400 0.30300
C 0.17300 -3.13600 -0.68800
C 0.17300 -4.43800 0.00400
C 0.13300 -4.11100 1.35800
C 0.08300 -2.69500 1.50200
C 0.14900 -5.71500 -0.62300
C 0.09600 -4.62900 2.71600
O 0.20800 -5.74700 3.22100
C -0.25500 -3.42800 3.70100
C 0.71700 -3.48200 4.84800
O 1.93100 -3.25500 4.66900
O 0.03800 -3.55600 6.00300
C 0.94300 -3.58300 7.18300
H -1.85900 3.22000 2.49700
H -0.21800 2.45300 -3.47400
H 0.27600 -3.74700 -2.60500
H -1.55400 -0.94900 5.13200
H -1.58500 1.83100 4.66500
H -3.48400 -0.37700 3.96900
H -3.51100 1.02700 2.85800
H -3.85200 1.30100 4.54300
H 0.66900 1.09600 4.96600
H 1.13000 -0.63900 5.18900
H -0.84400 0.02600 7.12500
H 0.06200 1.47700 6.92100
H -1.34400 5.18600 1.93800
H -1.65100 5.96300 0.43200
H 0.00700 6.02000 1.08400
H -0.63500 6.74400 -1.40500
H 0.66500 6.97000 -2.70400
H 1.04800 6.46600 -1.03600
H 0.60800 0.50100 -4.89100
H -0.69200 -2.15600 -4.54700
H -1.26700 0.74000 -6.12900
H -2.20400 0.71400 -4.59600
H -1.96700 -0.72000 -5.45300
H 1.35600 -1.75900 -5.96700
H 1.45200 -3.15700 -4.90200
H 2.71400 -0.52200 -4.79800
H 3.48700 -2.12100 -4.52900
H 2.49500 -1.30300 -3.24000
H 0.86700 -6.33300 -0.08400
H 0.40400 -5.64200 -1.68000
H -0.89100 -5.99900 -0.46300
H -1.28300 -3.58100 4.02800
H 0.69800 -4.47800 7.75500
H 0.83300 -2.61900 7.68000
H 2.00000 -3.75400 6.97600
Mg 8.93145 0.80662 0.66871
C 10.67160 -1.76659 -1.12837
C 10.73885 3.07500 -1.12638
C 7.75072 3.08009 2.54077
C 8.13157 -1.59806 3.06107
N 10.47485 0.56293 -0.89679
C 11.01096 -0.46171 -1.54257
C 11.90270 -0.06568 -2.74984
C 12.29200 1.42097 -2.28379
C 11.07949 1.72771 -1.40722
C 13.53625 1.47220 -1.41283
C 11.10707 -0.05387 -4.10219
C 11.97655 0.02106 -5.35923
H 11.53961 -0.69969 -6.55173
N 8.82520 2.76934 0.39480
C 9.62391 3.52633 -0.38642
C 9.14749 4.90918 -0.22853
C 8.10808 4.92851 0.83635
C 8.20464 3.56717 1.32370
C 9.61843 6.03664 -1.10058
C 7.18931 5.99916 1.34209
O 6.53375 5.86290 2.43502
C 7.15110 7.24919 0.56914
N 8.24731 0.80250 2.63194
C 7.73646 1.91487 3.18836
C 7.05945 1.60603 4.50238
C 7.01077 0.01027 4.59597
C 7.78168 -0.34258 3.30501
C 7.74059 2.16819 5.74994
C 5.61867 -0.63906 4.82643
C 4.74428 -0.43043 3.61098
N 9.15451 -1.33411 0.85732
C 8.77303 -2.13814 1.95372
C 9.23267 -3.51244 1.66656
C 9.87499 -3.40722 0.42364
C 9.83728 -2.05842 -0.02226
C 9.07891 -4.63746 2.52494
C 10.58567 -4.12846 -0.60759
O 10.84403 -5.31270 -0.81871
C 11.24382 -3.07486 -1.59913
C 10.93749 -3.50753 -3.00678
O 9.76668 -3.51183 -3.42605
O 12.09006 -3.63540 -3.68914
C 11.83760 -4.05235 -5.09422
H 11.41101 3.86229 -1.46881
H 7.23558 3.80441 3.17597
H 7.83520 -2.42360 3.71171
H 12.79779 -0.66432 -2.86914
H 12.33300 2.10211 -3.12980
H 13.88687 0.48451 -1.15268
H 13.25055 2.01866 -0.52357
H 14.31193 2.07120 -1.89847
H 10.56603 0.89699 -4.19101
H 10.45170 -0.90064 -4.16607
H 13.03048 -0.19393 -5.14485
H 11.98103 1.05352 -5.71703
H 10.50392 5.75234 -1.68238
H 9.97457 6.82936 -0.43378
H 8.82526 6.43817 -1.73486
H 8.14934 7.67838 0.52699
H 6.37240 7.85674 1.03433
H 6.86577 7.01414 -0.46234
H 6.04673 1.98986 4.51525
H 7.61349 -0.36726 5.43504
H 7.07799 2.81574 6.35468
H 8.62414 2.71092 5.44119
H 8.15271 1.42192 6.42703
H 5.10854 -0.15455 5.66260
H 5.66839 -1.69944 5.05031
H 4.34179 0.57505 3.76618
H 3.94961 -1.17305 3.57874
H 5.34424 -0.40739 2.69382
H 8.76956 -5.46529 1.90083
H 8.35496 -4.44036 3.31287
H 10.09640 -4.72564 2.91505
H 12.31589 -3.06194 -1.39895
H 12.41662 -4.96508 -5.26558
H 12.08805 -3.17268 -5.71647
H 10.83770 -4.38580 -5.34611

