%nproc=24
%mem=175gb
#p cam-b3lyp/Def2SVP td=(nstates=5)

TDDFT excited states in gaussian

0 1
Mg 0.00000 0.00000 0.00000
C -0.21700 -2.21800 2.80100
C -1.25500 2.44200 2.02600
C -0.24500 1.85000 -2.56400
C 0.14600 -2.82400 -2.03700
N -0.61700 -0.00900 2.12600
C -0.59400 -0.90800 3.10500
C -0.93600 -0.30900 4.50200
C -1.77300 0.96400 4.03200
C -1.15500 1.16800 2.66000
C -3.26300 0.68500 3.86300
C 0.34500 0.11000 5.29900
C 0.12400 0.39700 6.78700
H 1.16800 0.03300 7.73300
N -0.18500 1.96100 -0.15200
C -0.70300 2.80000 0.77700
C -0.62000 4.15600 0.19300
C -0.18700 4.01500 -1.22500
C -0.21400 2.58300 -1.38000
C -0.88700 5.40600 0.97400
C 0.18100 5.01300 -2.27700
O 0.30300 4.69000 -3.50800
C 0.31000 6.41400 -1.83700
N -0.26500 -0.41300 -2.02900
C -0.27900 0.56900 -2.93700
C -0.19600 0.02400 -4.33200
C 0.12400 -1.53300 -4.18000
C 0.08600 -1.63200 -2.63500
C -1.45100 0.20500 -5.19700
C 1.37300 -2.07000 -4.92300
C 2.62600 -1.49000 -4.30600
N 0.15000 -2.14400 0.30300
C 0.17300 -3.13600 -0.68800
C 0.17300 -4.43800 0.00400
C 0.13300 -4.11100 1.35800
C 0.08300 -2.69500 1.50200
C 0.14900 -5.71500 -0.62300
C 0.09600 -4.62900 2.71600
O 0.20800 -5.74700 3.22100
C -0.25500 -3.42800 3.70100
C 0.71700 -3.48200 4.84800
O 1.93100 -3.25500 4.66900
O 0.03800 -3.55600 6.00300
C 0.94300 -3.58300 7.18300
H -1.85900 3.22000 2.49700
H -0.21800 2.45300 -3.47400
H 0.27600 -3.74700 -2.60500
H -1.55400 -0.94900 5.13200
H -1.58500 1.83100 4.66500
H -3.48400 -0.37700 3.96900
H -3.51100 1.02700 2.85800
H -3.85200 1.30100 4.54300
H 0.66900 1.09600 4.96600
H 1.13000 -0.63900 5.18900
H -0.84400 0.02600 7.12500
H 0.06200 1.47700 6.92100
H -1.34400 5.18600 1.93800
H -1.65100 5.96300 0.43200
H 0.00700 6.02000 1.08400
H -0.63500 6.74400 -1.40500
H 0.66500 6.97000 -2.70400
H 1.04800 6.46600 -1.03600
H 0.60800 0.50100 -4.89100
H -0.69200 -2.15600 -4.54700
H -1.26700 0.74000 -6.12900
H -2.20400 0.71400 -4.59600
H -1.96700 -0.72000 -5.45300
H 1.35600 -1.75900 -5.96700
H 1.45200 -3.15700 -4.90200
H 2.71400 -0.52200 -4.79800
H 3.48700 -2.12100 -4.52900
H 2.49500 -1.30300 -3.24000
H 0.86700 -6.33300 -0.08400
H 0.40400 -5.64200 -1.68000
H -0.89100 -5.99900 -0.46300
H -1.28300 -3.58100 4.02800
H 0.69800 -4.47800 7.75500
H 0.83300 -2.61900 7.68000
H 2.00000 -3.75400 6.97600
Mg 7.87944 0.71401 0.60778
C 5.64385 -1.86035 1.72753
C 5.18472 2.80277 0.50681
C 9.72937 2.87082 -0.80410
C 10.11292 -1.80741 -0.28648
N 5.74221 0.39585 1.08029
C 5.01965 -0.60723 1.55576
C 3.56483 -0.22625 1.94038
C 3.39360 1.05780 0.99129
C 4.85879 1.47303 0.87516
C 2.88266 0.71523 -0.39828
C 3.42811 0.15720 3.45574
C 1.98952 0.24019 3.97083
H 1.71539 -0.18320 5.34125
N 7.64292 2.67409 0.40599
C 6.47962 3.35820 0.41166
C 6.84174 4.76932 0.20727
C 8.29932 4.84210 -0.08407
C 8.61667 3.43247 -0.19499
C 5.86097 5.89346 0.37410
C 9.24772 5.99071 -0.24973
O 10.42295 5.82892 -0.73499
C 8.72726 7.32421 0.08549
N 9.56980 0.55310 -0.59186
C 10.21285 1.64930 -1.03090
C 11.54774 1.29153 -1.63955
C 11.77507 -0.25425 -1.29830
C 10.43272 -0.55882 -0.59777
C 11.66875 1.50244 -3.14861
C 13.09271 -0.62670 -0.56498
C 13.08255 -0.05760 0.83552
N 7.98676 -1.42937 0.85769
C 8.99746 -2.29390 0.38320
C 8.57354 -3.67355 0.69829
C 7.32496 -3.51612 1.31859
C 6.98485 -2.13719 1.36723
C 9.28873 -4.85932 0.36878
C 6.21250 -4.20367 1.93373
O 5.97998 -5.36937 2.25125
C 5.01689 -3.17166 2.11226
C 4.48825 -3.31112 3.51354
O 5.19671 -3.00742 4.48948
O 3.16899 -3.57069 3.46300
C 2.59680 -3.70658 4.82900
H 4.37521 3.47556 0.22235
H 10.45395 3.58101 -1.20917
H 10.79871 -2.64246 -0.44479
H 2.81946 -0.97286 1.69389
H 2.81430 1.83635 1.48081
H 2.83116 -0.35169 -0.55692
H 3.58274 1.16704 -1.08879
H 1.92213 1.20641 -0.57843
H 3.73629 1.20207 3.58990
H 3.99415 -0.51460 4.07131
H 1.27591 -0.21977 3.27647
H 1.69258 1.29129 4.00308
H 4.82974 5.52307 0.42686
H 5.89083 6.48340 -0.54836
H 6.10461 6.54336 1.21727
H 7.85661 7.53732 -0.53015
H 9.57733 8.00242 -0.01099
H 8.38243 7.31390 1.12549
H 12.34510 1.87136 -1.19109
H 11.80238 -0.87252 -2.20760
H 12.50187 2.17382 -3.43008
H 10.72760 1.88979 -3.51568
H 11.78806 0.59234 -3.73401
H 13.94948 -0.17990 -1.07535
H 13.27060 -1.69563 -0.51262
H 13.41472 0.97397 0.68512
H 13.77123 -0.60457 1.47629
H 12.06353 -0.02043 1.23784
H 9.24851 -5.49944 1.24006
H 10.31526 -4.63828 0.08394
H 8.69562 -5.21599 -0.47755
H 4.26125 -3.41305 1.36372
H 2.10422 -4.68284 4.87338
H 1.96015 -2.81399 4.97637
H 3.29084 -3.78200 5.65789

