%nproc=24
%mem=175gb
#p cam-b3lyp/Def2SVP td=(nstates=5)

TDDFT excited states in gaussian

0 1
Mg 8.92718 0.80010 0.68537
C 8.47747 3.50954 2.99530
C 9.99617 -1.07631 3.32562
C 9.75887 -1.45725 -1.38346
C 8.92812 3.16553 -1.87401
N 9.16147 1.26782 2.83447
C 8.90094 2.31142 3.60736
C 9.02866 2.03266 5.12905
C 10.04034 0.78735 5.06130
C 9.69261 0.26543 3.66869
C 11.50307 1.19935 5.06548
C 7.65976 1.62593 5.77918
C 7.64515 1.64000 7.30932
H 6.42038 2.05129 7.98994
N 9.28567 -1.13137 0.96732
C 9.69053 -1.72561 2.10935
C 9.83125 -3.15498 1.79113
C 9.63557 -3.33092 0.32638
C 9.57166 -1.94710 -0.09912
C 10.04494 -4.20538 2.84205
C 9.53679 -4.54376 -0.54852
O 9.60524 -4.46009 -1.82569
C 9.45140 -5.84150 0.13708
N 9.50278 0.86042 -1.31147
C 9.75910 -0.27084 -1.99154
C 9.88305 -0.00102 -3.47215
C 9.41505 1.51493 -3.67325
C 9.17602 1.90383 -2.19778
C 11.27871 -0.18574 -4.06745
C 8.27650 1.76987 -4.69861
C 6.98350 1.17114 -4.19357
N 8.55676 2.92295 0.52928
C 8.63595 3.71936 -0.63413
C 8.41225 5.11948 -0.21935
C 8.23993 5.04259 1.17093
C 8.36863 3.69252 1.59551
C 8.43575 6.25511 -1.07721
C 7.98897 5.79787 2.37727
O 7.71064 6.97019 2.62610
C 8.25724 4.85527 3.62865
C 7.09929 5.00203 4.57741
O 5.96116 4.62336 4.24896
O 7.56419 5.36158 5.78777
C 6.45391 5.50888 6.76624
H 10.55942 -1.67934 4.03836
H 9.93868 -2.21064 -2.15389
H 8.81576 3.94982 -2.62564
H 9.46932 2.83889 5.70314
H 9.80261 0.04373 5.81752
H 11.62014 2.27048 4.99390
H 11.94842 0.71194 4.20808
H 12.00851 0.78638 5.94316
H 7.48127 0.55795 5.59940
H 6.86304 2.23874 5.40455
H 8.51177 2.16837 7.72496
H 7.76008 0.61387 7.66690
H 10.31341 -3.75949 3.80771
H 10.93383 -4.77455 2.54916
H 9.19949 -4.89102 2.93031
H 10.32599 -5.97405 0.76953
H 9.29743 -6.57957 -0.65249
H 8.58087 -5.82907 0.80240
H 9.22699 -0.64956 -4.03968
H 10.23627 2.15010 -4.03656
H 11.30465 -0.91149 -4.90214
H 11.94956 -0.49238 -3.27595
H 11.75054 0.72595 -4.42994
H 8.50051 1.27148 -5.64496
H 8.11956 2.82083 -4.91737
H 7.06535 0.12116 -4.49011
H 6.12888 1.64968 -4.66756
H 6.93677 1.20180 -3.09879
H 7.59624 6.87625 -0.79454
H 8.38106 5.96378 -2.12407
H 9.41149 6.67489 -0.81839
H 9.19883 5.17017 4.08010
H 6.52694 6.51828 7.18275
H 6.56328 4.66378 7.47164
H 5.44176 5.51261 6.37897

