%nproc=24
%mem=175gb
#p cam-b3lyp/Def2SVP td=(nstates=5)

TDDFT excited states in gaussian

0 1
Mg 0.00000 0.00000 0.00000
C -0.21700 -2.21800 2.80100
C -1.25500 2.44200 2.02600
C -0.24500 1.85000 -2.56400
C 0.14600 -2.82400 -2.03700
N -0.61700 -0.00900 2.12600
C -0.59400 -0.90800 3.10500
C -0.93600 -0.30900 4.50200
C -1.77300 0.96400 4.03200
C -1.15500 1.16800 2.66000
C -3.26300 0.68500 3.86300
C 0.34500 0.11000 5.29900
C 0.12400 0.39700 6.78700
H 1.16800 0.03300 7.73300
N -0.18500 1.96100 -0.15200
C -0.70300 2.80000 0.77700
C -0.62000 4.15600 0.19300
C -0.18700 4.01500 -1.22500
C -0.21400 2.58300 -1.38000
C -0.88700 5.40600 0.97400
C 0.18100 5.01300 -2.27700
O 0.30300 4.69000 -3.50800
C 0.31000 6.41400 -1.83700
N -0.26500 -0.41300 -2.02900
C -0.27900 0.56900 -2.93700
C -0.19600 0.02400 -4.33200
C 0.12400 -1.53300 -4.18000
C 0.08600 -1.63200 -2.63500
C -1.45100 0.20500 -5.19700
C 1.37300 -2.07000 -4.92300
C 2.62600 -1.49000 -4.30600
N 0.15000 -2.14400 0.30300
C 0.17300 -3.13600 -0.68800
C 0.17300 -4.43800 0.00400
C 0.13300 -4.11100 1.35800
C 0.08300 -2.69500 1.50200
C 0.14900 -5.71500 -0.62300
C 0.09600 -4.62900 2.71600
O 0.20800 -5.74700 3.22100
C -0.25500 -3.42800 3.70100
C 0.71700 -3.48200 4.84800
O 1.93100 -3.25500 4.66900
O 0.03800 -3.55600 6.00300
C 0.94300 -3.58300 7.18300
H -1.85900 3.22000 2.49700
H -0.21800 2.45300 -3.47400
H 0.27600 -3.74700 -2.60500
H -1.55400 -0.94900 5.13200
H -1.58500 1.83100 4.66500
H -3.48400 -0.37700 3.96900
H -3.51100 1.02700 2.85800
H -3.85200 1.30100 4.54300
H 0.66900 1.09600 4.96600
H 1.13000 -0.63900 5.18900
H -0.84400 0.02600 7.12500
H 0.06200 1.47700 6.92100
H -1.34400 5.18600 1.93800
H -1.65100 5.96300 0.43200
H 0.00700 6.02000 1.08400
H -0.63500 6.74400 -1.40500
H 0.66500 6.97000 -2.70400
H 1.04800 6.46600 -1.03600
H 0.60800 0.50100 -4.89100
H -0.69200 -2.15600 -4.54700
H -1.26700 0.74000 -6.12900
H -2.20400 0.71400 -4.59600
H -1.96700 -0.72000 -5.45300
H 1.35600 -1.75900 -5.96700
H 1.45200 -3.15700 -4.90200
H 2.71400 -0.52200 -4.79800
H 3.48700 -2.12100 -4.52900
H 2.49500 -1.30300 -3.24000
H 0.86700 -6.33300 -0.08400
H 0.40400 -5.64200 -1.68000
H -0.89100 -5.99900 -0.46300
H -1.28300 -3.58100 4.02800
H 0.69800 -4.47800 7.75500
H 0.83300 -2.61900 7.68000
H 2.00000 -3.75400 6.97600
Mg 7.88925 0.71293 0.59079
C 10.66360 -1.54263 0.89811
C 10.10530 3.26469 1.05147
C 5.41758 2.69395 0.77483
C 5.79740 -1.98445 1.29365
N 10.07621 0.73190 0.92110
C 11.03348 -0.18280 0.95720
C 12.47417 0.39456 0.98172
C 12.14374 1.83935 1.60001
C 10.69523 1.97826 1.13612
C 12.16299 1.86248 3.11936
C 13.09528 0.51272 -0.45434
C 14.60250 0.77579 -0.48347
H 15.39443 0.16929 -1.55000
N 7.80577 2.68494 0.38399
C 8.80560 3.56774 0.58966
C 8.23092 4.89559 0.32372
C 6.76742 4.73799 0.10453
C 6.59978 3.33831 0.44052
C 9.06708 6.13780 0.21799
C 5.69395 5.69259 -0.32279
O 4.45077 5.39891 -0.21750
C 6.13869 7.01694 -0.78082
N 5.91409 0.45169 1.18481
C 5.03252 1.46480 1.11868
C 3.62049 0.97403 1.33246
C 3.71335 -0.62243 1.31556
C 5.24302 -0.78550 1.17806
C 2.94619 1.43067 2.62597
C 2.79684 -1.37008 0.30874
C 3.23786 -1.07632 -1.10709
N 8.13122 -1.41967 0.83880
C 7.12718 -2.36100 1.15485
C 7.79487 -3.66689 1.33172
C 9.15462 -3.38801 1.12732
C 9.32480 -2.00212 0.86305
C 7.15423 -4.88744 1.68663
C 10.48590 -3.94894 1.08552
O 10.95181 -5.08596 1.14755
C 11.53625 -2.75624 1.06016
C 12.54165 -3.04562 -0.02055
O 12.19660 -3.06847 -1.21513
O 13.77720 -3.03206 0.51199
C 14.81000 -3.30313 -0.52323
H 10.67519 4.12154 1.41191
H 4.51800 3.31302 0.74349
H 5.20366 -2.89265 1.41743
H 13.16533 -0.13614 1.62548
H 12.76334 2.61182 1.15197
H 12.27993 0.87305 3.53590
H 11.21493 2.28954 3.41910
H 12.93141 2.55427 3.47613
H 12.73428 1.43586 -0.92575
H 12.86887 -0.35690 -1.04011
H 15.07099 0.59739 0.49205
H 14.76544 1.84035 -0.66837
H 10.08546 5.97003 0.58969
H 8.64148 6.86984 0.91286
H 9.06488 6.56267 -0.78806
H 6.70150 7.50319 0.01244
H 5.23643 7.52440 -1.12765
H 6.82986 6.88284 -1.62041
H 2.97270 1.29691 0.52672
H 3.43711 -1.05695 2.28753
H 1.99457 1.96873 2.45572
H 3.64232 2.05290 3.17255
H 2.73436 0.63770 3.34120
H 1.76826 -1.01110 0.39422
H 2.77650 -2.44438 0.45865
H 2.75487 -0.11846 -1.32230
H 2.89202 -1.85390 -1.78518
H 4.32138 -0.91768 -1.15689
H 7.57714 -5.65646 1.05396
H 6.07517 -4.82018 1.56474
H 7.44473 -4.96166 2.73799
H 11.99866 -2.70592 2.04668
H 15.39743 -4.15730 -0.17250
H 15.34751 -2.34694 -0.66653
H 14.47062 -3.66169 -1.48796

