%nproc=24
%mem=175gb
#p cam-b3lyp/Def2SVP td=(nstates=5)

TDDFT excited states in gaussian

0 1
Mg 8.92445 0.80679 0.67541
C 8.18432 -2.00309 -1.43073
C 8.49008 2.78716 -2.06759
C 10.00807 3.24748 2.38895
C 10.39085 -1.43052 2.90920
N 8.40504 0.33577 -1.42235
C 8.08622 -0.76134 -2.09245
C 7.55975 -0.50661 -3.53033
C 8.24289 0.92395 -3.78662
C 8.35845 1.40218 -2.34073
C 9.64239 0.82656 -4.37079
C 5.99440 -0.41389 -3.58604
C 5.39621 -0.47538 -4.99321
H 4.11569 -1.15307 -5.17618
N 8.74519 2.76146 0.38266
C 8.54982 3.39355 -0.79360
C 8.50741 4.82946 -0.47652
C 8.85814 5.00335 0.95926
C 9.24617 3.64972 1.30164
C 8.08192 5.87018 -1.47115
C 8.85810 6.19383 1.86972
O 9.42750 6.16363 3.01763
C 8.25324 7.42454 1.33965
N 10.22227 0.92635 2.29520
C 10.48375 2.10555 2.88598
C 11.21925 1.91092 4.19042
C 11.18414 0.33719 4.47276
C 10.48127 -0.13596 3.18145
C 12.66705 2.40034 4.21723
C 10.60485 -0.11985 5.83959
C 9.12447 0.18065 5.89916
N 9.08362 -1.34112 0.84625
C 9.76429 -2.06911 1.84666
C 9.68891 -3.49658 1.47372
C 8.98389 -3.49800 0.26069
C 8.66144 -2.16381 -0.10737
C 10.27117 -4.57672 2.19511
C 8.44838 -4.32393 -0.79750
O 8.34113 -5.53529 -0.98415
C 8.01699 -3.38304 -2.00374
C 6.63970 -3.79603 -2.44536
O 5.66386 -3.65397 -1.68762
O 6.66656 -4.08575 -3.75903
C 5.32089 -4.49018 -4.24629
H 8.60049 3.47345 -2.90765
H 10.31241 4.04398 3.07193
H 10.73835 -2.19869 3.60334
H 7.90031 -1.21945 -4.27172
H 7.58668 1.57912 -4.35364
H 9.99366 -0.19394 -4.40718
H 10.27348 1.42106 -3.72322
H 9.67611 1.31018 -5.35125
H 5.68505 0.59804 -3.29443
H 5.54585 -1.16836 -2.96943
H 6.12457 -0.82302 -5.73590
H 5.15313 0.54124 -5.31167
H 8.04355 5.46218 -2.48873
H 8.87884 6.62073 -1.50933
H 7.14696 6.36126 -1.19305
H 8.77075 7.71829 0.42951
H 8.26751 8.13692 2.16681
H 7.21628 7.21116 1.05716
H 10.71435 2.42444 4.99942
H 12.19268 -0.10158 4.46043
H 12.86317 3.13955 5.01671
H 12.90450 2.81707 3.24744
H 13.41704 1.61826 4.32252
H 11.06857 0.44175 6.65428
H 10.76183 -1.17356 6.04463
H 9.09806 1.23277 6.19822
H 8.63459 -0.45177 6.63680
H 8.66801 0.10895 4.90510
H 9.53324 -5.36747 2.22106
H 10.56476 -4.27279 3.19771
H 11.13591 -4.79085 1.56135
H 8.75559 -3.50740 -2.79657
H 5.43239 -5.47379 -4.71295
H 4.97607 -3.66184 -4.89334
H 4.55905 -4.69389 -3.50295

