%nproc=24
%mem=175gb
#p cam-b3lyp/Def2SVP td=(nstates=5)

TDDFT excited states in gaussian

0 1
Mg 0.00000 0.00000 0.00000
C -0.21700 -2.21800 2.80100
C -1.25500 2.44200 2.02600
C -0.24500 1.85000 -2.56400
C 0.14600 -2.82400 -2.03700
N -0.61700 -0.00900 2.12600
C -0.59400 -0.90800 3.10500
C -0.93600 -0.30900 4.50200
C -1.77300 0.96400 4.03200
C -1.15500 1.16800 2.66000
C -3.26300 0.68500 3.86300
C 0.34500 0.11000 5.29900
C 0.12400 0.39700 6.78700
H 1.16800 0.03300 7.73300
N -0.18500 1.96100 -0.15200
C -0.70300 2.80000 0.77700
C -0.62000 4.15600 0.19300
C -0.18700 4.01500 -1.22500
C -0.21400 2.58300 -1.38000
C -0.88700 5.40600 0.97400
C 0.18100 5.01300 -2.27700
O 0.30300 4.69000 -3.50800
C 0.31000 6.41400 -1.83700
N -0.26500 -0.41300 -2.02900
C -0.27900 0.56900 -2.93700
C -0.19600 0.02400 -4.33200
C 0.12400 -1.53300 -4.18000
C 0.08600 -1.63200 -2.63500
C -1.45100 0.20500 -5.19700
C 1.37300 -2.07000 -4.92300
C 2.62600 -1.49000 -4.30600
N 0.15000 -2.14400 0.30300
C 0.17300 -3.13600 -0.68800
C 0.17300 -4.43800 0.00400
C 0.13300 -4.11100 1.35800
C 0.08300 -2.69500 1.50200
C 0.14900 -5.71500 -0.62300
C 0.09600 -4.62900 2.71600
O 0.20800 -5.74700 3.22100
C -0.25500 -3.42800 3.70100
C 0.71700 -3.48200 4.84800
O 1.93100 -3.25500 4.66900
O 0.03800 -3.55600 6.00300
C 0.94300 -3.58300 7.18300
H -1.85900 3.22000 2.49700
H -0.21800 2.45300 -3.47400
H 0.27600 -3.74700 -2.60500
H -1.55400 -0.94900 5.13200
H -1.58500 1.83100 4.66500
H -3.48400 -0.37700 3.96900
H -3.51100 1.02700 2.85800
H -3.85200 1.30100 4.54300
H 0.66900 1.09600 4.96600
H 1.13000 -0.63900 5.18900
H -0.84400 0.02600 7.12500
H 0.06200 1.47700 6.92100
H -1.34400 5.18600 1.93800
H -1.65100 5.96300 0.43200
H 0.00700 6.02000 1.08400
H -0.63500 6.74400 -1.40500
H 0.66500 6.97000 -2.70400
H 1.04800 6.46600 -1.03600
H 0.60800 0.50100 -4.89100
H -0.69200 -2.15600 -4.54700
H -1.26700 0.74000 -6.12900
H -2.20400 0.71400 -4.59600
H -1.96700 -0.72000 -5.45300
H 1.35600 -1.75900 -5.96700
H 1.45200 -3.15700 -4.90200
H 2.71400 -0.52200 -4.79800
H 3.48700 -2.12100 -4.52900
H 2.49500 -1.30300 -3.24000
H 0.86700 -6.33300 -0.08400
H 0.40400 -5.64200 -1.68000
H -0.89100 -5.99900 -0.46300
H -1.28300 -3.58100 4.02800
H 0.69800 -4.47800 7.75500
H 0.83300 -2.61900 7.68000
H 2.00000 -3.75400 6.97600
Mg 13.14586 1.17790 1.00395
C 13.35079 -1.98692 -0.67562
C 12.20457 -0.53525 3.79925
C 12.52112 3.96679 2.38209
C 12.98038 2.67752 -2.13762
N 12.85205 -0.98049 1.38773
C 13.01924 -2.09454 0.69110
C 12.89857 -3.39851 1.52456
C 11.99169 -2.83434 2.72379
C 12.39502 -1.36247 2.66367
C 10.50047 -2.93257 2.44820
C 14.28902 -3.90576 2.04550
C 14.28643 -5.33165 2.60098
H 15.46675 -6.16432 2.38651
N 12.94182 1.64558 2.92182
C 12.57442 0.82179 3.92565
C 12.55310 1.65193 5.13998
C 12.77767 3.06869 4.74366
C 12.73390 2.94872 3.30013
C 12.41409 1.07397 6.51840
C 12.98336 4.32578 5.53335
O 12.92172 5.48285 4.98541
C 13.16625 4.16655 6.98341
N 12.58817 3.03172 0.24586
C 12.43131 4.09190 1.05785
C 12.30143 5.37107 0.26587
C 12.64737 4.97784 -1.24518
C 12.83873 3.45498 -1.07289
C 10.93158 6.04747 0.31459
C 13.77224 5.78979 -1.94381
C 15.10407 5.49130 -1.29379
N 13.34499 0.52209 -1.04502
C 13.21382 1.31013 -2.20943
C 13.31921 0.39791 -3.36666
C 13.48264 -0.87077 -2.79028
C 13.45911 -0.75986 -1.37372
C 13.21291 0.77457 -4.73522
C 13.65907 -2.27998 -3.05807
O 13.83906 -2.95601 -4.07016
C 13.45484 -3.08171 -1.70090
C 14.58714 -4.06264 -1.56601
O 15.75554 -3.66289 -1.41885
O 14.08206 -5.30059 -1.41513
C 15.16649 -6.30740 -1.26628
H 11.68451 -0.95106 4.66269
H 12.41091 4.96789 2.80531
H 13.03680 3.08025 -3.15117
H 12.38817 -4.21228 1.02352
H 12.28085 -3.27033 3.67650
H 10.29791 -3.25804 1.43865
H 10.10498 -1.93866 2.61182
H 10.02093 -3.57413 3.19303
H 14.55516 -3.35061 2.95419
H 15.03743 -3.81664 1.28224
H 13.37563 -5.87855 2.32842
H 14.25114 -5.27904 3.69185
H 12.10034 0.02335 6.48432
H 11.57724 1.59188 6.99938
H 13.31124 1.21227 7.12558
H 12.29868 3.66345 7.40374
H 13.38765 5.16647 7.36158
H 14.02591 3.50984 7.15758
H 13.01369 6.11180 0.60809
H 11.78132 5.11253 -1.90974
H 10.97315 7.09186 0.67736
H 10.27949 5.45310 0.94072
H 10.39138 6.06512 -0.63044
H 13.59917 6.86152 -1.81889
H 13.84594 5.59747 -3.00897
H 15.11051 6.15850 -0.42668
H 15.92209 5.72004 -1.97390
H 15.13671 4.46205 -0.91800
H 13.99644 0.24887 -5.26458
H 13.30193 1.85183 -4.85917
H 12.20377 0.41775 -4.95790
H 12.48619 -3.57983 -1.75725
H 15.00772 -7.06476 -2.04015
H 15.11847 -6.64483 -0.21386
H 16.17903 -5.98962 -1.48593

