%nproc=24
%mem=175gb
#p cam-b3lyp/Def2SVP td=(nstates=5)

TDDFT excited states in gaussian

0 1
Mg 0.00000 0.00000 0.00000
C -0.21700 -2.21800 2.80100
C -1.25500 2.44200 2.02600
C -0.24500 1.85000 -2.56400
C 0.14600 -2.82400 -2.03700
N -0.61700 -0.00900 2.12600
C -0.59400 -0.90800 3.10500
C -0.93600 -0.30900 4.50200
C -1.77300 0.96400 4.03200
C -1.15500 1.16800 2.66000
C -3.26300 0.68500 3.86300
C 0.34500 0.11000 5.29900
C 0.12400 0.39700 6.78700
H 1.16800 0.03300 7.73300
N -0.18500 1.96100 -0.15200
C -0.70300 2.80000 0.77700
C -0.62000 4.15600 0.19300
C -0.18700 4.01500 -1.22500
C -0.21400 2.58300 -1.38000
C -0.88700 5.40600 0.97400
C 0.18100 5.01300 -2.27700
O 0.30300 4.69000 -3.50800
C 0.31000 6.41400 -1.83700
N -0.26500 -0.41300 -2.02900
C -0.27900 0.56900 -2.93700
C -0.19600 0.02400 -4.33200
C 0.12400 -1.53300 -4.18000
C 0.08600 -1.63200 -2.63500
C -1.45100 0.20500 -5.19700
C 1.37300 -2.07000 -4.92300
C 2.62600 -1.49000 -4.30600
N 0.15000 -2.14400 0.30300
C 0.17300 -3.13600 -0.68800
C 0.17300 -4.43800 0.00400
C 0.13300 -4.11100 1.35800
C 0.08300 -2.69500 1.50200
C 0.14900 -5.71500 -0.62300
C 0.09600 -4.62900 2.71600
O 0.20800 -5.74700 3.22100
C -0.25500 -3.42800 3.70100
C 0.71700 -3.48200 4.84800
O 1.93100 -3.25500 4.66900
O 0.03800 -3.55600 6.00300
C 0.94300 -3.58300 7.18300
H -1.85900 3.22000 2.49700
H -0.21800 2.45300 -3.47400
H 0.27600 -3.74700 -2.60500
H -1.55400 -0.94900 5.13200
H -1.58500 1.83100 4.66500
H -3.48400 -0.37700 3.96900
H -3.51100 1.02700 2.85800
H -3.85200 1.30100 4.54300
H 0.66900 1.09600 4.96600
H 1.13000 -0.63900 5.18900
H -0.84400 0.02600 7.12500
H 0.06200 1.47700 6.92100
H -1.34400 5.18600 1.93800
H -1.65100 5.96300 0.43200
H 0.00700 6.02000 1.08400
H -0.63500 6.74400 -1.40500
H 0.66500 6.97000 -2.70400
H 1.04800 6.46600 -1.03600
H 0.60800 0.50100 -4.89100
H -0.69200 -2.15600 -4.54700
H -1.26700 0.74000 -6.12900
H -2.20400 0.71400 -4.59600
H -1.96700 -0.72000 -5.45300
H 1.35600 -1.75900 -5.96700
H 1.45200 -3.15700 -4.90200
H 2.71400 -0.52200 -4.79800
H 3.48700 -2.12100 -4.52900
H 2.49500 -1.30300 -3.24000
H 0.86700 -6.33300 -0.08400
H 0.40400 -5.64200 -1.68000
H -0.89100 -5.99900 -0.46300
H -1.28300 -3.58100 4.02800
H 0.69800 -4.47800 7.75500
H 0.83300 -2.61900 7.68000
H 2.00000 -3.75400 6.97600
Mg 7.88378 0.71443 0.60830
C 6.24005 -1.70532 2.68724
C 5.48820 2.94509 1.56742
C 9.03796 2.73150 -1.55196
C 9.42094 -1.94685 -1.03501
N 6.14172 0.52575 1.95806
C 5.65215 -0.42431 2.74041
C 4.51676 0.04526 3.68906
C 4.00773 1.31345 2.84557
C 5.29843 1.64458 2.09918
C 2.93971 0.96597 1.82189
C 5.05485 0.47218 5.09981
C 3.97802 0.64656 6.17302
H 4.29832 0.27215 7.54769
N 7.66124 2.67909 0.43756
C 6.63952 3.42604 0.90599
C 6.93514 4.80976 0.50341
C 8.13072 4.79525 -0.38264
C 8.31458 3.36803 -0.55391
C 6.16445 5.98982 1.02005
C 8.96226 5.88564 -0.98745
O 9.81074 5.64781 -1.91822
C 8.68758 7.25346 -0.52364
N 8.89296 0.43187 -1.18727
C 9.32990 1.48012 -1.90711
C 10.26228 1.03490 -3.00841
C 10.55234 -0.51233 -2.72644
C 9.62632 -0.72562 -1.50891
C 9.73610 1.20228 -4.43371
C 12.04110 -0.93880 -2.60647
C 12.65186 -0.33629 -1.36174
N 8.00289 -1.42494 0.88575
C 8.67960 -2.35495 0.06647
C 8.37661 -3.70119 0.59398
C 7.51929 -3.46040 1.67820
C 7.28709 -2.06409 1.80422
C 8.83550 -4.93210 0.04590
C 6.74946 -4.07068 2.73820
O 6.62888 -5.21381 3.17688
C 5.78600 -2.97049 3.36089
C 5.90069 -3.04675 4.85873
O 6.96918 -2.75894 5.42628
O 4.67687 -3.23455 5.38538
C 4.73729 -3.30571 6.86966
H 4.66191 3.65429 1.62373
H 9.54784 3.39078 -2.25826
H 9.94014 -2.82192 -1.43170
H 3.70866 -0.66499 3.81675
H 3.72383 2.13428 3.49903
H 2.78343 -0.10003 1.74869
H 3.29549 1.36178 0.87966
H 2.01431 1.50471 2.04491
H 5.43173 1.50148 5.04281
H 5.80244 -0.21462 5.44626
H 3.01885 0.20986 5.86933
H 3.76491 1.71286 6.28074
H 5.24058 5.67807 1.52272
H 5.82111 6.55474 0.14664
H 6.76994 6.64555 1.64939
H 7.64664 7.49915 -0.71994
H 9.44124 7.88138 -1.00280
H 8.81930 7.28728 0.56361
H 11.19693 1.58071 -2.96803
H 10.16469 -1.15298 -3.53213
H 10.39525 1.81985 -5.07261
H 8.74438 1.63179 -4.38321
H 9.55828 0.27310 -4.97243
H 12.61511 -0.55225 -3.45219
H 12.18203 -2.01431 -2.58628
H 12.92850 0.67152 -1.68560
H 13.52594 -0.90463 -1.05028
H 11.90422 -0.23344 -0.56669
H 9.14565 -5.54777 0.87971
H 9.65022 -4.77477 -0.65784
H 7.92445 -5.27599 -0.45109
H 4.77436 -3.18802 3.01616
H 4.27267 -4.25206 7.16333
H 4.26010 -2.37618 7.23299
H 5.71507 -3.39909 7.32757

