%nproc=24
%mem=175gb
#p cam-b3lyp/Def2SVP td=(nstates=5)

TDDFT excited states in gaussian

0 1
Mg 10.51866 0.94984 0.79223
C 13.19630 -1.24230 1.74294
C 12.47275 3.54455 1.83323
C 8.02025 2.86349 0.38810
C 8.40006 -1.81497 0.90642
N 12.55333 1.01563 1.65715
C 13.49872 0.12456 1.91516
C 14.87005 0.73703 2.30747
C 14.35292 2.15798 2.84817
C 13.06163 2.27162 2.04050
C 13.99328 2.14543 4.32460
C 15.82470 0.90481 1.07358
C 17.28323 1.20612 1.42522
H 18.33328 0.64516 0.57953
N 10.42980 2.92351 0.60435
C 11.32006 3.82590 1.06740
C 10.78975 5.14491 0.68906
C 9.43207 4.95601 0.10963
C 9.22846 3.54498 0.36968
C 11.58812 6.40980 0.81586
C 8.47021 5.89336 -0.55550
O 7.24930 5.56626 -0.76813
C 8.97469 7.23895 -0.86597
N 8.46665 0.62522 0.87106
C 7.59905 1.61726 0.60448
C 6.19365 1.08637 0.45152
C 6.33587 -0.50641 0.43144
C 7.85592 -0.62786 0.67656
C 5.20559 1.49510 1.54379
C 5.72130 -1.25259 -0.78437
C 6.49128 -0.91428 -2.04058
N 10.75559 -1.18134 1.05680
C 9.73335 -2.15474 1.09691
C 10.37518 -3.44736 1.41253
C 11.73403 -3.12977 1.55799
C 11.92269 -1.73416 1.36778
C 9.70354 -4.69165 1.57610
C 13.05022 -3.65608 1.83969
O 13.52015 -4.78224 1.99668
C 14.03747 -2.43722 2.09682
C 15.28816 -2.67557 1.29589
O 15.25166 -2.67862 0.05280
O 16.35161 -2.64379 2.11956
C 17.61697 -2.86424 1.36982
H 12.90909 4.40656 2.33861
H 7.13844 3.46043 0.14409
H 7.82185 -2.74043 0.86312
H 15.39521 0.20862 3.09408
H 15.04086 2.95615 2.58165
H 14.03280 1.14961 4.74044
H 12.98804 2.54140 4.38588
H 14.62772 2.84754 4.87311
H 15.56452 1.82960 0.54270
H 15.77728 0.04399 0.43534
H 17.49975 1.01633 2.48355
H 17.45484 2.27852 1.30467
H 12.48675 6.25876 1.42663
H 10.98131 7.11423 1.39502
H 11.82320 6.85830 -0.15175
H 9.30779 7.72011 0.05054
H 8.17206 7.73178 -1.41803
H 9.85655 7.14219 -1.50907
H 5.75699 1.41203 -0.48463
H 5.83998 -0.97070 1.29651
H 4.31036 2.01309 1.15094
H 5.72497 2.12138 2.25693
H 4.84666 0.68030 2.17027
H 4.69340 -0.92157 -0.95177
H 5.69673 -2.33031 -0.66234
H 6.04828 0.03604 -2.35317
H 6.34841 -1.68392 -2.79642
H 7.54789 -0.72745 -1.81624
H 10.29339 -5.43458 1.05588
H 8.68710 -4.64851 1.19042
H 9.72575 -4.78357 2.66529
H 14.23848 -2.39883 3.16812
H 18.12428 -3.71155 1.84140
H 18.14415 -1.89176 1.38102
H 17.53895 -3.20812 0.34507

