%nproc=24
%mem=175gb
#p cam-b3lyp/Def2SVP td=(nstates=5)

TDDFT excited states in gaussian

0 1
Mg 15.77334 1.41598 1.20479
C 15.94290 -2.07080 0.37253
C 14.73908 0.47027 4.31453
C 15.18202 4.47029 1.82846
C 15.70362 2.08632 -2.21450
N 15.42493 -0.57324 2.10692
C 15.58174 -1.82847 1.71428
C 15.41599 -2.88098 2.84313
C 14.49775 -2.02076 3.84100
C 14.93419 -0.61720 3.42603
C 13.01057 -2.16067 3.56161
C 16.78432 -3.26444 3.50844
C 16.73953 -4.50629 4.40150
H 17.90548 -5.38502 4.43071
N 15.54112 2.35085 2.93991
C 15.13580 1.80977 4.10791
C 15.10823 2.91699 5.07613
C 15.37152 4.18616 4.34496
C 15.35411 3.71034 2.97625
C 14.92904 2.70377 6.55121
C 15.58868 5.59711 4.80132
O 15.56328 6.58159 3.98097
C 15.73895 5.80199 6.24940
N 15.27150 3.03058 -0.00500
C 15.12153 4.26229 0.51302
C 15.03547 5.30517 -0.57573
C 15.40299 4.54165 -1.93203
C 15.55762 3.10714 -1.38097
C 13.67998 5.99428 -0.73118
C 16.55907 5.13527 -2.78278
C 17.87077 4.98710 -2.04599
N 15.99919 0.26631 -0.61051
C 15.90860 0.74073 -1.93746
C 16.01726 -0.43308 -2.82785
C 16.14142 -1.52017 -1.94962
C 16.09191 -1.05878 -0.60642
C 15.94667 -0.40833 -4.24931
C 16.29243 -2.95426 -1.85330
O 16.47790 -3.86436 -2.66019
C 16.04360 -3.38841 -0.34466
C 17.15132 -4.32271 0.05854
O 18.32497 -3.91775 0.13043
O 16.61646 -5.47549 0.50056
C 17.67549 -6.43060 0.92252
H 14.19287 0.29160 5.24115
H 15.08518 5.54700 1.98598
H 15.78911 2.22232 -3.29471
H 14.89813 -3.78574 2.54817
H 14.75818 -2.20971 4.87919
H 12.82125 -2.72455 2.66031
H 12.63363 -1.15114 3.46250
H 12.50233 -2.58817 4.43067
H 17.04422 -2.50438 4.25644
H 17.54966 -3.38075 2.76590
H 15.82267 -5.08917 4.25127
H 16.68352 -4.18245 5.44361
H 14.59323 1.68309 6.77223
H 14.09421 3.33875 6.86699
H 15.81664 2.97480 7.12687
H 14.85236 5.43378 6.76014
H 15.97445 6.86096 6.37183
H 16.58043 5.19580 6.60304
H 15.75669 6.09631 -0.41131
H 14.55358 4.52011 -2.63051
H 13.73702 7.09535 -0.63920
H 13.00267 5.58562 0.00691
H 13.15936 5.78415 -1.66392
H 16.40693 6.20689 -2.93323
H 16.64991 4.68198 -3.76424
H 17.87436 5.84945 -1.37262
H 18.70707 5.02562 -2.74109
H 17.87344 4.08386 -1.42486
H 16.72901 -1.06209 -4.61131
H 16.06161 0.60230 -4.63555
H 14.93466 -0.79314 -4.40105
H 15.06565 -3.86916 -0.29916
H 17.51580 -7.35451 0.35810
H 17.59903 -6.49380 2.02430
H 18.69891 -6.19406 0.65585

