%nproc=24
%mem=175gb
#p cam-b3lyp/Def2SVP td=(nstates=5)

TDDFT excited states in gaussian

0 1
Mg 0.00000 0.00000 0.00000
C -0.21700 -2.21800 2.80100
C -1.25500 2.44200 2.02600
C -0.24500 1.85000 -2.56400
C 0.14600 -2.82400 -2.03700
N -0.61700 -0.00900 2.12600
C -0.59400 -0.90800 3.10500
C -0.93600 -0.30900 4.50200
C -1.77300 0.96400 4.03200
C -1.15500 1.16800 2.66000
C -3.26300 0.68500 3.86300
C 0.34500 0.11000 5.29900
C 0.12400 0.39700 6.78700
H 1.16800 0.03300 7.73300
N -0.18500 1.96100 -0.15200
C -0.70300 2.80000 0.77700
C -0.62000 4.15600 0.19300
C -0.18700 4.01500 -1.22500
C -0.21400 2.58300 -1.38000
C -0.88700 5.40600 0.97400
C 0.18100 5.01300 -2.27700
O 0.30300 4.69000 -3.50800
C 0.31000 6.41400 -1.83700
N -0.26500 -0.41300 -2.02900
C -0.27900 0.56900 -2.93700
C -0.19600 0.02400 -4.33200
C 0.12400 -1.53300 -4.18000
C 0.08600 -1.63200 -2.63500
C -1.45100 0.20500 -5.19700
C 1.37300 -2.07000 -4.92300
C 2.62600 -1.49000 -4.30600
N 0.15000 -2.14400 0.30300
C 0.17300 -3.13600 -0.68800
C 0.17300 -4.43800 0.00400
C 0.13300 -4.11100 1.35800
C 0.08300 -2.69500 1.50200
C 0.14900 -5.71500 -0.62300
C 0.09600 -4.62900 2.71600
O 0.20800 -5.74700 3.22100
C -0.25500 -3.42800 3.70100
C 0.71700 -3.48200 4.84800
O 1.93100 -3.25500 4.66900
O 0.03800 -3.55600 6.00300
C 0.94300 -3.58300 7.18300
H -1.85900 3.22000 2.49700
H -0.21800 2.45300 -3.47400
H 0.27600 -3.74700 -2.60500
H -1.55400 -0.94900 5.13200
H -1.58500 1.83100 4.66500
H -3.48400 -0.37700 3.96900
H -3.51100 1.02700 2.85800
H -3.85200 1.30100 4.54300
H 0.66900 1.09600 4.96600
H 1.13000 -0.63900 5.18900
H -0.84400 0.02600 7.12500
H 0.06200 1.47700 6.92100
H -1.34400 5.18600 1.93800
H -1.65100 5.96300 0.43200
H 0.00700 6.02000 1.08400
H -0.63500 6.74400 -1.40500
H 0.66500 6.97000 -2.70400
H 1.04800 6.46600 -1.03600
H 0.60800 0.50100 -4.89100
H -0.69200 -2.15600 -4.54700
H -1.26700 0.74000 -6.12900
H -2.20400 0.71400 -4.59600
H -1.96700 -0.72000 -5.45300
H 1.35600 -1.75900 -5.96700
H 1.45200 -3.15700 -4.90200
H 2.71400 -0.52200 -4.79800
H 3.48700 -2.12100 -4.52900
H 2.49500 -1.30300 -3.24000
H 0.86700 -6.33300 -0.08400
H 0.40400 -5.64200 -1.68000
H -0.89100 -5.99900 -0.46300
H -1.28300 -3.58100 4.02800
H 0.69800 -4.47800 7.75500
H 0.83300 -2.61900 7.68000
H 2.00000 -3.75400 6.97600
Mg 10.50221 0.94731 0.80449
C 11.69091 3.24324 3.29342
C 9.91507 -1.26122 3.33673
C 9.87447 -1.25318 -1.39351
C 12.21497 2.84484 -1.56438
N 10.80425 1.08884 2.99104
C 11.20459 2.03269 3.82962
C 11.00147 1.68874 5.32962
C 10.99211 0.08734 5.20999
C 10.50690 -0.04722 3.76807
C 12.37658 -0.53156 5.30778
C 9.63907 2.23100 5.88803
C 9.51212 2.20274 7.41277
H 8.77784 3.28030 8.07016
N 9.52679 -0.77462 0.95306
C 9.36683 -1.52613 2.06253
C 8.59226 -2.70410 1.64232
C 8.44956 -2.66782 0.16143
C 9.31474 -1.55042 -0.15945
C 8.00303 -3.68091 2.61807
C 7.67412 -3.50871 -0.80696
O 7.88392 -3.44780 -2.06994
C 6.72784 -4.47274 -0.22674
N 11.14514 0.68877 -1.15565
C 10.67829 -0.32266 -1.90863
C 11.06559 -0.14780 -3.35770
C 11.68626 1.32239 -3.46212
C 11.62971 1.72731 -1.97275
C 12.06813 -1.16327 -3.90553
C 11.05778 2.27867 -4.51246
C 9.64344 2.62948 -4.11002
N 11.57987 2.81991 0.79541
C 12.24167 3.41790 -0.29936
C 12.92608 4.62341 0.21128
C 12.63163 4.63055 1.58304
C 11.83772 3.49768 1.90834
C 13.73584 5.50793 -0.55555
C 12.82074 5.33307 2.83180
O 13.33193 6.40377 3.15739
C 12.32559 4.39784 4.01778
C 11.45262 5.22097 4.92492
O 10.36495 5.66817 4.52045
O 11.93943 5.16163 6.17787
C 11.10098 5.95376 7.11667
H 9.90611 -2.10717 4.02461
H 9.59642 -1.92254 -2.21090
H 12.68846 3.54297 -2.25800
H 11.80543 2.00818 5.98182
H 10.27534 -0.35584 5.89642
H 13.15310 0.21871 5.32326
H 12.47853 -1.16364 4.43536
H 12.43060 -1.19975 6.17204
H 8.83788 1.53037 5.61977
H 9.44747 3.22304 5.52779
H 10.47939 2.04139 7.90400
H 8.91899 1.32965 7.69548
H 8.41387 -3.54058 3.62550
H 8.34753 -4.67726 2.32060
H 6.91099 -3.66985 2.61770
H 7.26348 -5.15379 0.43032
H 6.20485 -4.91632 -1.07620
H 6.01323 -3.92762 0.40000
H 10.19596 -0.20858 -4.00047
H 12.75003 1.29673 -3.74063
H 11.69476 -1.71098 -4.79135
H 12.32374 -1.85281 -3.11198
H 13.03937 -0.75311 -4.17694
H 10.99008 1.78249 -5.48374
H 11.62313 3.19329 -4.65677
H 9.06306 1.77991 -4.48215
H 9.33014 3.55854 -4.58196
H 9.53785 2.64828 -3.01908
H 13.46312 6.51295 -0.26219
H 13.59398 5.35221 -1.62298
H 14.73064 5.19835 -0.22420
H 13.21182 4.02341 4.53157
H 11.76468 6.66933 7.61179
H 10.59029 5.21229 7.75946
H 10.35787 6.61605 6.68816

