%nproc=24
%mem=175gb
#p cam-b3lyp/Def2SVP td=(nstates=5)

TDDFT excited states in gaussian

0 1
Mg 15.76566 1.42403 1.20718
C 13.90968 -1.04024 3.04069
C 13.23657 3.61195 1.87895
C 17.15204 3.48010 -0.77220
C 17.53521 -1.19821 -0.25509
N 13.87109 1.19729 2.32585
C 13.30120 0.23220 3.03166
C 12.04914 0.67610 3.83469
C 11.63146 1.94672 2.94591
C 13.00058 2.30321 2.37050
C 10.70533 1.59652 1.79309
C 12.39990 1.09442 5.30574
C 11.19463 1.24258 6.23694
H 11.34552 0.85719 7.63736
N 15.53773 3.38734 1.02826
C 14.45459 4.11543 1.37176
C 14.77818 5.50734 1.02242
C 16.07548 5.51852 0.29330
C 16.30009 4.09586 0.13310
C 13.93173 6.67127 1.44929
C 16.96031 6.62650 -0.19216
O 17.92214 6.41029 -1.01129
C 16.60980 7.98532 0.24630
N 16.99594 1.17484 -0.45013
C 17.50436 2.23673 -1.09961
C 18.57380 1.81617 -2.07932
C 18.84870 0.26988 -1.77768
C 17.78058 0.03082 -0.68802
C 18.22803 1.99237 -3.55776
C 20.31673 -0.13813 -1.47584
C 20.75783 0.45856 -0.15873
N 15.88015 -0.71652 1.47735
C 16.66768 -1.62832 0.74079
C 16.32057 -2.98423 1.21349
C 15.33071 -2.76690 2.18376
C 15.06426 -1.37527 2.29272
C 16.86239 -4.20279 0.71582
C 14.44304 -3.39906 3.13303
O 14.28507 -4.54849 3.54240
C 13.39324 -2.31873 3.64017
C 13.32038 -2.41010 5.13979
O 14.30501 -2.11446 5.83960
O 12.04306 -2.61994 5.50692
C 11.91800 -2.70678 6.98633
H 12.39951 4.30946 1.83777
H 17.73678 4.15389 -1.40273
H 18.11271 -2.06186 -0.59167
H 11.24183 -0.04617 3.85332
H 11.25599 2.75641 3.56622
H 10.57499 0.52941 1.69089
H 11.17061 2.00745 0.90670
H 9.75154 2.12043 1.90326
H 12.76595 2.12919 5.30613
H 13.10809 0.41378 5.73682
H 10.28755 0.79660 5.81121
H 10.95421 2.30470 6.32704
H 12.95677 6.34173 1.82912
H 13.69240 7.24126 0.54503
H 14.44396 7.32794 2.15574
H 15.59821 8.21935 -0.07676
H 17.40836 8.62846 -0.12861
H 16.60370 8.00879 1.34175
H 19.48798 2.37383 -1.91688
H 18.57446 -0.36687 -2.63160
H 18.95302 2.62569 -4.10309
H 17.23167 2.40812 -3.62809
H 18.13267 1.06697 -4.12321
H 20.98653 0.26538 -2.23919
H 20.46965 -1.21183 -1.44820
H 21.05819 1.47348 -0.43587
H 21.59415 -0.10157 0.25462
H 19.91503 0.54265 0.53715
H 17.07451 -4.82352 1.57617
H 17.75652 -4.02687 0.12139
H 16.02592 -4.55318 0.10525
H 12.43605 -2.54580 3.16921
H 11.43405 -3.66241 7.21050
H 11.38557 -1.78774 7.29558
H 12.83193 -2.79227 7.56241

