%nproc=24
%mem=175gb
#p cam-b3lyp/Def2SVP td=(nstates=5)

TDDFT excited states in gaussian

0 1
Mg 10.51825 0.94832 0.80575
C 9.37765 -1.10360 3.52010
C 10.16492 3.63126 2.88219
C 11.08474 2.82694 -1.68770
C 9.69598 -1.67309 -1.33849
N 9.85011 1.11469 2.90769
C 9.50046 0.26039 3.85757
C 9.34731 0.89284 5.26687
C 9.05427 2.40728 4.82025
C 9.76154 2.40412 3.46658
C 7.57963 2.69160 4.58800
C 10.66326 0.78852 6.11505
C 10.49620 1.10518 7.60286
H 11.29823 0.35813 8.56781
N 11.07981 2.85038 0.73216
C 10.87522 3.79620 1.67281
C 11.45952 5.03363 1.13287
C 11.87931 4.77999 -0.27217
C 11.33336 3.45299 -0.47494
C 11.64690 6.27296 1.95893
C 12.63459 5.60158 -1.27254
O 12.67995 5.27884 -2.51214
C 13.24138 6.84501 -0.77538
N 10.21204 0.71094 -1.23685
C 10.59605 1.66010 -2.10838
C 10.52840 1.15496 -3.52988
C 10.24875 -0.41544 -3.41493
C 10.10830 -0.53589 -1.88158
C 9.46067 1.79836 -4.41439
C 11.24188 -1.36227 -4.14285
C 12.59799 -1.29776 -3.47787
N 9.86298 -1.09813 1.03092
C 9.55123 -2.01221 0.00070
C 9.04239 -3.23943 0.64679
C 9.07199 -2.94343 2.01791
C 9.54545 -1.61759 2.21152
C 8.58545 -4.40655 -0.02787
C 8.80032 -3.44732 3.34494
O 8.46511 -4.53644 3.80883
C 8.86659 -2.23401 4.36958
C 9.70401 -2.66248 5.54331
O 10.91552 -2.90435 5.40062
O 8.99107 -2.50632 6.67366
C 9.78314 -2.90782 7.86666
H 9.87438 4.56021 3.37363
H 11.36846 3.39347 -2.57766
H 9.51100 -2.57048 -1.93276
H 8.51778 0.50973 5.84900
H 9.52611 3.11650 5.49533
H 6.98206 1.79409 4.64729
H 7.51575 3.12395 3.59803
H 7.23175 3.46572 5.27797
H 11.34157 1.60123 5.82499
H 11.11532 -0.17738 5.99972
H 9.44222 1.11650 7.90606
H 10.83715 2.12806 7.78035
H 11.09306 6.21400 2.90401
H 11.16921 7.09504 1.41500
H 12.69919 6.51840 2.11743
H 12.46634 7.48318 -0.35763
H 13.81228 7.24742 -1.61443
H 13.92236 6.59769 0.04664
H 11.47169 1.30753 -4.03981
H 9.27252 -0.68781 -3.84227
H 9.87338 2.25915 -5.33168
H 8.92779 2.53360 -3.82617
H 8.66034 1.13180 -4.73119
H 11.38702 -1.03706 -5.17596
H 10.91034 -2.39480 -4.17382
H 13.05315 -0.41199 -3.93100
H 13.17507 -2.19389 -3.69691
H 12.50055 -1.10507 -2.40314
H 8.99665 -5.25447 0.50360
H 8.88871 -4.40616 -1.07277
H 7.50469 -4.28707 0.08593
H 7.84318 -1.99593 4.66202
H 9.19787 -3.66393 8.39906
H 10.00454 -1.96889 8.40808
H 10.71138 -3.44044 7.69593

