%nproc=24
%mem=175gb
#p cam-b3lyp/Def2SVP td=(nstates=5)

TDDFT excited states in gaussian

0 1
Mg 0.00000 0.00000 0.00000
C -0.21700 -2.21800 2.80100
C -1.25500 2.44200 2.02600
C -0.24500 1.85000 -2.56400
C 0.14600 -2.82400 -2.03700
N -0.61700 -0.00900 2.12600
C -0.59400 -0.90800 3.10500
C -0.93600 -0.30900 4.50200
C -1.77300 0.96400 4.03200
C -1.15500 1.16800 2.66000
C -3.26300 0.68500 3.86300
C 0.34500 0.11000 5.29900
C 0.12400 0.39700 6.78700
H 1.16800 0.03300 7.73300
N -0.18500 1.96100 -0.15200
C -0.70300 2.80000 0.77700
C -0.62000 4.15600 0.19300
C -0.18700 4.01500 -1.22500
C -0.21400 2.58300 -1.38000
C -0.88700 5.40600 0.97400
C 0.18100 5.01300 -2.27700
O 0.30300 4.69000 -3.50800
C 0.31000 6.41400 -1.83700
N -0.26500 -0.41300 -2.02900
C -0.27900 0.56900 -2.93700
C -0.19600 0.02400 -4.33200
C 0.12400 -1.53300 -4.18000
C 0.08600 -1.63200 -2.63500
C -1.45100 0.20500 -5.19700
C 1.37300 -2.07000 -4.92300
C 2.62600 -1.49000 -4.30600
N 0.15000 -2.14400 0.30300
C 0.17300 -3.13600 -0.68800
C 0.17300 -4.43800 0.00400
C 0.13300 -4.11100 1.35800
C 0.08300 -2.69500 1.50200
C 0.14900 -5.71500 -0.62300
C 0.09600 -4.62900 2.71600
O 0.20800 -5.74700 3.22100
C -0.25500 -3.42800 3.70100
C 0.71700 -3.48200 4.84800
O 1.93100 -3.25500 4.66900
O 0.03800 -3.55600 6.00300
C 0.94300 -3.58300 7.18300
H -1.85900 3.22000 2.49700
H -0.21800 2.45300 -3.47400
H 0.27600 -3.74700 -2.60500
H -1.55400 -0.94900 5.13200
H -1.58500 1.83100 4.66500
H -3.48400 -0.37700 3.96900
H -3.51100 1.02700 2.85800
H -3.85200 1.30100 4.54300
H 0.66900 1.09600 4.96600
H 1.13000 -0.63900 5.18900
H -0.84400 0.02600 7.12500
H 0.06200 1.47700 6.92100
H -1.34400 5.18600 1.93800
H -1.65100 5.96300 0.43200
H 0.00700 6.02000 1.08400
H -0.63500 6.74400 -1.40500
H 0.66500 6.97000 -2.70400
H 1.04800 6.46600 -1.03600
H 0.60800 0.50100 -4.89100
H -0.69200 -2.15600 -4.54700
H -1.26700 0.74000 -6.12900
H -2.20400 0.71400 -4.59600
H -1.96700 -0.72000 -5.45300
H 1.35600 -1.75900 -5.96700
H 1.45200 -3.15700 -4.90200
H 2.71400 -0.52200 -4.79800
H 3.48700 -2.12100 -4.52900
H 2.49500 -1.30300 -3.24000
H 0.86700 -6.33300 -0.08400
H 0.40400 -5.64200 -1.68000
H -0.89100 -5.99900 -0.46300
H -1.28300 -3.58100 4.02800
H 0.69800 -4.47800 7.75500
H 0.83300 -2.61900 7.68000
H 2.00000 -3.75400 6.97600
Mg 15.77421 1.41824 1.19073
C 15.44137 4.43096 -0.73068
C 15.26659 -0.30849 -1.70674
C 15.61314 -1.23815 2.91847
C 15.11757 3.32378 4.03387
N 15.41281 2.08703 -0.88638
C 15.36874 3.25599 -1.50761
C 15.32027 3.15998 -3.05616
C 14.69792 1.68532 -3.18629
C 15.18144 1.09821 -1.86184
C 13.17833 1.67145 -3.18846
C 16.74663 3.24079 -3.70498
C 16.75278 3.46399 -5.21888
H 17.81165 4.28695 -5.79680
N 15.97013 -0.48061 0.64801
C 15.74492 -1.00475 -0.57504
C 16.01087 -2.44622 -0.45020
C 16.25174 -2.75618 0.98529
C 15.92672 -1.47938 1.58880
C 16.09714 -3.36339 -1.63544
C 16.68841 -4.00003 1.69829
O 16.60255 -4.11120 2.97230
C 17.13199 -5.11851 0.85347
N 15.20987 1.04720 3.15699
C 15.28230 -0.19148 3.67501
C 15.09156 -0.16837 5.17283
C 15.11689 1.37655 5.58536
C 15.23369 2.01127 4.18219
C 13.80497 -0.81182 5.68961
C 16.14115 1.79743 6.67459
C 17.54877 1.65502 6.14194
N 15.53582 3.51937 1.63399
C 15.23979 4.09846 2.88743
C 15.06145 5.54815 2.66604
C 15.24484 5.70983 1.28447
C 15.49821 4.44701 0.68398
C 14.72312 6.50646 3.66268
C 15.27119 6.66017 0.19596
O 15.20950 7.88605 0.11137
C 15.27437 5.85734 -1.17584
C 16.34246 6.44617 -2.05616
O 17.54194 6.35797 -1.73978
O 15.79239 6.82179 -3.22522
C 16.81449 7.40189 -4.13659
H 14.89288 -0.94271 -2.51110
H 15.65345 -2.10831 3.57777
H 15.00776 3.99992 4.88443
H 14.67002 3.88164 -3.53590
H 15.13240 1.14573 -4.02380
H 12.76622 2.64814 -2.98261
H 12.88946 0.96883 -2.41780
H 12.80649 1.25626 -4.12956
H 17.21747 2.25035 -3.65917
H 17.34085 3.99462 -3.22616
H 15.77183 3.78173 -5.59267
H 16.92884 2.50411 -5.71045
H 15.71208 -2.88399 -2.54390
H 15.40392 -4.19108 -1.45039
H 17.10051 -3.76884 -1.78213
H 16.32787 -5.40249 0.17877
H 17.48848 -5.88395 1.54548
H 17.96250 -4.77540 0.22646
H 15.90442 -0.67932 5.67412
H 14.15161 1.70373 5.99890
H 13.98542 -1.62158 6.42159
H 13.24479 -1.18340 4.84187
H 13.09768 -0.12443 6.15053
H 16.06807 1.13389 7.53976
H 15.99810 2.81126 7.03330
H 17.76495 0.59368 6.29661
H 18.23643 2.28385 6.70383
H 17.58223 1.84437 5.06274
H 15.35441 7.36849 3.49276
H 14.85988 6.10377 4.66413
H 13.66822 6.66951 3.42635
H 14.28111 5.95601 -1.61546
H 16.46069 8.39774 -4.42086
H 16.94432 6.66251 -4.94913
H 17.78611 7.63452 -3.71672

