%nproc=24
%mem=175gb
#p cam-b3lyp/Def2SVP td=(nstates=5)

TDDFT excited states in gaussian

0 1
Mg 0.00000 0.00000 0.00000
C -0.21700 -2.21800 2.80100
C -1.25500 2.44200 2.02600
C -0.24500 1.85000 -2.56400
C 0.14600 -2.82400 -2.03700
N -0.61700 -0.00900 2.12600
C -0.59400 -0.90800 3.10500
C -0.93600 -0.30900 4.50200
C -1.77300 0.96400 4.03200
C -1.15500 1.16800 2.66000
C -3.26300 0.68500 3.86300
C 0.34500 0.11000 5.29900
C 0.12400 0.39700 6.78700
H 1.16800 0.03300 7.73300
N -0.18500 1.96100 -0.15200
C -0.70300 2.80000 0.77700
C -0.62000 4.15600 0.19300
C -0.18700 4.01500 -1.22500
C -0.21400 2.58300 -1.38000
C -0.88700 5.40600 0.97400
C 0.18100 5.01300 -2.27700
O 0.30300 4.69000 -3.50800
C 0.31000 6.41400 -1.83700
N -0.26500 -0.41300 -2.02900
C -0.27900 0.56900 -2.93700
C -0.19600 0.02400 -4.33200
C 0.12400 -1.53300 -4.18000
C 0.08600 -1.63200 -2.63500
C -1.45100 0.20500 -5.19700
C 1.37300 -2.07000 -4.92300
C 2.62600 -1.49000 -4.30600
N 0.15000 -2.14400 0.30300
C 0.17300 -3.13600 -0.68800
C 0.17300 -4.43800 0.00400
C 0.13300 -4.11100 1.35800
C 0.08300 -2.69500 1.50200
C 0.14900 -5.71500 -0.62300
C 0.09600 -4.62900 2.71600
O 0.20800 -5.74700 3.22100
C -0.25500 -3.42800 3.70100
C 0.71700 -3.48200 4.84800
O 1.93100 -3.25500 4.66900
O 0.03800 -3.55600 6.00300
C 0.94300 -3.58300 7.18300
H -1.85900 3.22000 2.49700
H -0.21800 2.45300 -3.47400
H 0.27600 -3.74700 -2.60500
H -1.55400 -0.94900 5.13200
H -1.58500 1.83100 4.66500
H -3.48400 -0.37700 3.96900
H -3.51100 1.02700 2.85800
H -3.85200 1.30100 4.54300
H 0.66900 1.09600 4.96600
H 1.13000 -0.63900 5.18900
H -0.84400 0.02600 7.12500
H 0.06200 1.47700 6.92100
H -1.34400 5.18600 1.93800
H -1.65100 5.96300 0.43200
H 0.00700 6.02000 1.08400
H -0.63500 6.74400 -1.40500
H 0.66500 6.97000 -2.70400
H 1.04800 6.46600 -1.03600
H 0.60800 0.50100 -4.89100
H -0.69200 -2.15600 -4.54700
H -1.26700 0.74000 -6.12900
H -2.20400 0.71400 -4.59600
H -1.96700 -0.72000 -5.45300
H 1.35600 -1.75900 -5.96700
H 1.45200 -3.15700 -4.90200
H 2.71400 -0.52200 -4.79800
H 3.48700 -2.12100 -4.52900
H 2.49500 -1.30300 -3.24000
H 0.86700 -6.33300 -0.08400
H 0.40400 -5.64200 -1.68000
H -0.89100 -5.99900 -0.46300
H -1.28300 -3.58100 4.02800
H 0.69800 -4.47800 7.75500
H 0.83300 -2.61900 7.68000
H 2.00000 -3.75400 6.97600
Mg 8.94195 0.80559 0.67153
C 8.49098 4.25456 -0.21182
C 8.37599 0.04711 -2.60551
C 8.88642 -2.25856 1.49331
C 8.33931 1.71827 3.98054
N 8.50231 2.07412 -1.08625
C 8.41627 3.37626 -1.31293
C 8.32067 3.76301 -2.81321
C 7.72281 2.38426 -3.37933
C 8.25912 1.42976 -2.31445
C 6.20445 2.32924 -3.34899
C 9.72399 4.08056 -3.43921
C 9.67797 4.76151 -4.80886
H 10.70211 5.75223 -5.12837
N 9.15685 -0.82573 -0.43805
C 8.90311 -0.95161 -1.75754
C 9.20037 -2.35289 -2.09251
C 9.49242 -3.08512 -0.83027
C 9.16232 -2.06747 0.14724
C 9.26661 -2.85532 -3.50552
C 9.97511 -4.47585 -0.54908
O 9.93174 -4.97829 0.62927
C 10.41303 -5.26501 -1.70966
N 8.44730 -0.17152 2.43871
C 8.55974 -1.50718 2.54499
C 8.41608 -1.95420 3.98023
C 8.42492 -0.61280 4.85094
C 8.48512 0.42811 3.71152
C 7.15901 -2.76174 4.30282
C 9.47491 -0.52128 5.99192
C 10.86743 -0.45239 5.40753
N 8.67761 2.65877 1.75038
C 8.41037 2.81289 3.12839
C 8.19745 4.25432 3.37203
C 8.33392 4.84079 2.10478
C 8.59224 3.83349 1.13622
C 7.87258 4.84719 4.62466
C 8.30765 6.08175 1.36450
O 8.21990 7.27137 1.66590
C 8.28276 5.74342 -0.18834
C 9.31102 6.60548 -0.86809
O 10.52137 6.45726 -0.62375
O 8.71716 7.30899 -1.84930
C 9.69864 8.17107 -2.56015
H 7.98921 -0.31715 -3.55766
H 8.96419 -3.28858 1.84896
H 8.24357 2.09456 5.00128
H 7.64190 4.57924 -3.02955
H 8.14080 2.14280 -4.35316
H 5.78048 3.18231 -2.84040
H 5.95359 1.41477 -2.82758
H 5.81102 2.21553 -4.36319
H 10.21487 3.13817 -3.71432
H 10.31855 4.66546 -2.76466
H 8.67979 5.15178 -5.04183
H 9.85670 4.00626 -5.57807
H 8.84390 -2.12922 -4.21086
H 8.59553 -3.71868 -3.56969
H 10.27240 -3.16721 -3.79496
H 9.59354 -5.34856 -2.41954
H 10.80579 -6.19679 -1.29808
H 11.21658 -4.72157 -2.21917
H 9.25400 -2.57229 4.27848
H 7.46713 -0.45684 5.36877
H 7.37797 -3.75294 4.74289
H 6.57949 -2.86818 3.39542
H 6.45366 -2.27087 4.97119
H 9.44193 -1.42182 6.61006
H 9.32393 0.32729 6.65080
H 11.10863 -1.50298 5.22004
H 11.56038 -0.00939 6.12000
H 10.86311 0.06260 4.43984
H 8.48158 5.73678 4.71536
H 8.04862 4.15826 5.44817
H 6.80780 5.04581 4.47613
H 7.27438 5.94551 -0.55154
H 9.31706 9.19569 -2.51282
H 9.81680 7.72347 -3.56486
H 10.67844 8.28939 -2.11243

