%nproc=24
%mem=175gb
#p cam-b3lyp/Def2SVP td=(nstates=5)

TDDFT excited states in gaussian

0 1
Mg 0.00000 0.00000 0.00000
C -0.21700 -2.21800 2.80100
C -1.25500 2.44200 2.02600
C -0.24500 1.85000 -2.56400
C 0.14600 -2.82400 -2.03700
N -0.61700 -0.00900 2.12600
C -0.59400 -0.90800 3.10500
C -0.93600 -0.30900 4.50200
C -1.77300 0.96400 4.03200
C -1.15500 1.16800 2.66000
C -3.26300 0.68500 3.86300
C 0.34500 0.11000 5.29900
C 0.12400 0.39700 6.78700
H 1.16800 0.03300 7.73300
N -0.18500 1.96100 -0.15200
C -0.70300 2.80000 0.77700
C -0.62000 4.15600 0.19300
C -0.18700 4.01500 -1.22500
C -0.21400 2.58300 -1.38000
C -0.88700 5.40600 0.97400
C 0.18100 5.01300 -2.27700
O 0.30300 4.69000 -3.50800
C 0.31000 6.41400 -1.83700
N -0.26500 -0.41300 -2.02900
C -0.27900 0.56900 -2.93700
C -0.19600 0.02400 -4.33200
C 0.12400 -1.53300 -4.18000
C 0.08600 -1.63200 -2.63500
C -1.45100 0.20500 -5.19700
C 1.37300 -2.07000 -4.92300
C 2.62600 -1.49000 -4.30600
N 0.15000 -2.14400 0.30300
C 0.17300 -3.13600 -0.68800
C 0.17300 -4.43800 0.00400
C 0.13300 -4.11100 1.35800
C 0.08300 -2.69500 1.50200
C 0.14900 -5.71500 -0.62300
C 0.09600 -4.62900 2.71600
O 0.20800 -5.74700 3.22100
C -0.25500 -3.42800 3.70100
C 0.71700 -3.48200 4.84800
O 1.93100 -3.25500 4.66900
O 0.03800 -3.55600 6.00300
C 0.94300 -3.58300 7.18300
H -1.85900 3.22000 2.49700
H -0.21800 2.45300 -3.47400
H 0.27600 -3.74700 -2.60500
H -1.55400 -0.94900 5.13200
H -1.58500 1.83100 4.66500
H -3.48400 -0.37700 3.96900
H -3.51100 1.02700 2.85800
H -3.85200 1.30100 4.54300
H 0.66900 1.09600 4.96600
H 1.13000 -0.63900 5.18900
H -0.84400 0.02600 7.12500
H 0.06200 1.47700 6.92100
H -1.34400 5.18600 1.93800
H -1.65100 5.96300 0.43200
H 0.00700 6.02000 1.08400
H -0.63500 6.74400 -1.40500
H 0.66500 6.97000 -2.70400
H 1.04800 6.46600 -1.03600
H 0.60800 0.50100 -4.89100
H -0.69200 -2.15600 -4.54700
H -1.26700 0.74000 -6.12900
H -2.20400 0.71400 -4.59600
H -1.96700 -0.72000 -5.45300
H 1.35600 -1.75900 -5.96700
H 1.45200 -3.15700 -4.90200
H 2.71400 -0.52200 -4.79800
H 3.48700 -2.12100 -4.52900
H 2.49500 -1.30300 -3.24000
H 0.86700 -6.33300 -0.08400
H 0.40400 -5.64200 -1.68000
H -0.89100 -5.99900 -0.46300
H -1.28300 -3.58100 4.02800
H 0.69800 -4.47800 7.75500
H 0.83300 -2.61900 7.68000
H 2.00000 -3.75400 6.97600
Mg 31.54061 2.83230 2.39305
C 31.58665 3.03818 -1.18948
C 30.98527 -0.51504 2.04449
C 31.04670 2.68903 5.52402
C 30.95829 6.26799 2.44440
N 31.33326 1.54499 0.60641
C 31.43056 1.72372 -0.70238
C 31.43695 0.41174 -1.53198
C 30.67794 -0.53920 -0.48389
C 31.04593 0.18179 0.81127
C 29.16581 -0.51233 -0.63246
C 32.88993 -0.10230 -1.82627
C 32.98071 -1.20124 -2.88733
H 34.13866 -1.21587 -3.77693
N 31.57037 1.27916 3.62814
C 31.34529 -0.01407 3.31483
C 31.46221 -0.76013 4.57732
C 31.61171 0.21857 5.68841
C 31.38967 1.46126 4.97673
C 31.50645 -2.25949 4.63535
C 31.89355 0.06117 7.15196
O 31.74450 1.03265 7.97467
C 32.25909 -1.28793 7.60782
N 30.86154 4.22571 3.77855
C 30.78982 3.92183 5.08639
C 30.54050 5.15588 5.92026
C 30.70116 6.39149 4.91774
C 30.93801 5.61986 3.60098
C 29.17639 5.23110 6.60579
C 31.71604 7.49654 5.31969
C 33.12354 6.94703 5.27107
N 31.49273 4.42374 0.93254
C 31.20373 5.78630 1.16490
C 31.17872 6.45665 -0.15132
C 31.43418 5.42497 -1.06722
C 31.58623 4.19461 -0.37253
C 30.89573 7.83301 -0.37866
C 31.59924 5.09511 -2.46459
O 31.66245 5.74312 -3.50853
C 31.57987 3.51300 -2.61606
C 32.73639 3.11607 -3.49209
O 33.90717 3.29246 -3.11162
O 32.27492 2.39943 -4.53318
C 33.38613 1.97331 -5.42506
H 30.58436 -1.52901 2.04829
H 30.97359 2.71562 6.61371
H 30.88070 7.35561 2.38328
H 30.88154 0.45902 -2.46099
H 31.09130 -1.54441 -0.49139
H 28.84399 0.23455 -1.34290
H 28.77735 -0.28964 0.35271
H 28.79404 -1.50958 -0.88467
H 33.25837 -0.65433 -0.95204
H 33.53536 0.71185 -2.09311
H 32.05223 -1.29561 -3.46349
H 33.08132 -2.16457 -2.38147
H 31.20852 -2.70800 3.67959
H 30.72783 -2.57541 5.33807
H 32.47009 -2.63938 4.98141
H 31.45946 -1.98190 7.35991
H 32.50932 -1.18133 8.66513
H 33.14464 -1.61684 7.05264
H 31.27749 5.24510 6.70892
H 29.75663 6.94142 4.79418
H 29.24556 5.34855 7.70374
H 28.61780 4.33964 6.35316
H 28.52197 6.02340 6.24635
H 31.54207 7.81355 6.35090
H 31.65908 8.38269 4.69640
H 33.22728 6.44817 6.23930
H 33.84610 7.75344 5.16312
H 33.22015 6.18058 4.49333
H 31.61554 8.18274 -1.10672
H 30.95052 8.40776 0.54353
H 29.87277 7.76177 -0.75778
H 30.62025 3.23767 -3.05525
H 33.14446 2.33207 -6.43033
H 33.47582 0.87918 -5.28873
H 34.35777 2.42641 -5.26671

