%nproc=24
%mem=175gb
#p cam-b3lyp/Def2SVP td=(nstates=5)

TDDFT excited states in gaussian

0 1
Mg 13.14704 1.18658 0.99291
C 15.71600 -0.98030 2.25154
C 14.91729 3.79524 2.29511
C 10.69142 3.07131 0.29639
C 11.07128 -1.60717 0.81446
N 15.05608 1.26973 2.10687
C 15.97454 0.38845 2.47312
C 17.27682 1.01465 3.04013
C 16.67539 2.42253 3.52494
C 15.49400 2.52800 2.56272
C 16.13375 2.38881 4.94439
C 18.37606 1.20877 1.93740
C 19.77448 1.52546 2.47209
H 20.93029 0.98790 1.75963
N 13.05373 3.16086 0.81384
C 13.86571 4.06977 1.39336
C 13.36787 5.38576 0.96383
C 12.09642 5.18533 0.21688
C 11.88237 3.76892 0.43610
C 14.12557 6.65964 1.20164
C 11.21198 6.11718 -0.55489
O 10.03224 5.77630 -0.92210
C 11.73177 7.47270 -0.78699
N 11.10627 0.83393 0.81058
C 10.26459 1.81728 0.44653
C 8.89731 1.26954 0.11347
C 9.06408 -0.32089 0.09648
C 10.54303 -0.42489 0.52926
C 7.77430 1.65298 1.07690
C 8.61766 -1.06160 -1.19376
C 9.53402 -0.69918 -2.34020
N 13.37991 -0.94408 1.26515
C 12.37497 -1.93133 1.16757
C 12.99092 -3.21876 1.54912
C 14.31605 -2.88482 1.86690
C 14.50675 -1.48481 1.71494
C 12.32224 -4.47358 1.61546
C 15.59407 -3.39673 2.30659
O 16.05695 -4.51824 2.51077
C 16.52347 -2.16782 2.69697
C 17.86802 -2.38066 2.05711
O 17.98766 -2.37038 0.81930
O 18.81927 -2.34394 3.00797
C 20.17169 -2.53925 2.42091
H 15.27426 4.65729 2.85930
H 9.83855 3.65919 -0.05074
H 10.51657 -2.53967 0.69029
H 17.70688 0.48454 3.88144
H 17.37962 3.23266 3.35433
H 16.13532 1.38904 5.35256
H 15.12311 2.77071 4.88275
H 16.68416 3.09313 5.57472
H 18.17105 2.13586 1.38676
H 18.42154 0.35454 1.29023
H 19.85938 1.32681 3.54740
H 19.94423 2.60131 2.38407
H 14.94267 6.51375 1.91890
H 13.44077 7.34948 1.70665
H 14.47353 7.12193 0.27542
H 11.94033 7.94802 0.16853
H 10.99758 7.96096 -1.43077
H 12.68859 7.39479 -1.31523
H 8.57675 1.59976 -0.86699
H 8.47048 -0.80130 0.88811
H 6.92794 2.16339 0.57969
H 8.19103 2.27812 1.85540
H 7.35157 0.82658 1.64573
H 7.61415 -0.74240 -1.48571
H 8.59367 -2.14085 -1.08587
H 9.11992 0.24860 -2.69699
H 9.49822 -1.46220 -3.11516
H 10.55135 -0.50087 -1.98331
H 12.98338 -5.20281 1.16644
H 11.36163 -4.43964 1.10571
H 12.20908 -4.57729 2.69792
H 16.58804 -2.13867 3.78534
H 20.62816 -3.38494 2.94447
H 20.67911 -1.56006 2.50727
H 20.22774 -2.87272 1.39130

