%nproc=24
%mem=175gb
#p cam-b3lyp/Def2SVP td=(nstates=5)

TDDFT excited states in gaussian

0 1
Mg 0.00000 0.00000 0.00000
C -0.21700 -2.21800 2.80100
C -1.25500 2.44200 2.02600
C -0.24500 1.85000 -2.56400
C 0.14600 -2.82400 -2.03700
N -0.61700 -0.00900 2.12600
C -0.59400 -0.90800 3.10500
C -0.93600 -0.30900 4.50200
C -1.77300 0.96400 4.03200
C -1.15500 1.16800 2.66000
C -3.26300 0.68500 3.86300
C 0.34500 0.11000 5.29900
C 0.12400 0.39700 6.78700
H 1.16800 0.03300 7.73300
N -0.18500 1.96100 -0.15200
C -0.70300 2.80000 0.77700
C -0.62000 4.15600 0.19300
C -0.18700 4.01500 -1.22500
C -0.21400 2.58300 -1.38000
C -0.88700 5.40600 0.97400
C 0.18100 5.01300 -2.27700
O 0.30300 4.69000 -3.50800
C 0.31000 6.41400 -1.83700
N -0.26500 -0.41300 -2.02900
C -0.27900 0.56900 -2.93700
C -0.19600 0.02400 -4.33200
C 0.12400 -1.53300 -4.18000
C 0.08600 -1.63200 -2.63500
C -1.45100 0.20500 -5.19700
C 1.37300 -2.07000 -4.92300
C 2.62600 -1.49000 -4.30600
N 0.15000 -2.14400 0.30300
C 0.17300 -3.13600 -0.68800
C 0.17300 -4.43800 0.00400
C 0.13300 -4.11100 1.35800
C 0.08300 -2.69500 1.50200
C 0.14900 -5.71500 -0.62300
C 0.09600 -4.62900 2.71600
O 0.20800 -5.74700 3.22100
C -0.25500 -3.42800 3.70100
C 0.71700 -3.48200 4.84800
O 1.93100 -3.25500 4.66900
O 0.03800 -3.55600 6.00300
C 0.94300 -3.58300 7.18300
H -1.85900 3.22000 2.49700
H -0.21800 2.45300 -3.47400
H 0.27600 -3.74700 -2.60500
H -1.55400 -0.94900 5.13200
H -1.58500 1.83100 4.66500
H -3.48400 -0.37700 3.96900
H -3.51100 1.02700 2.85800
H -3.85200 1.30100 4.54300
H 0.66900 1.09600 4.96600
H 1.13000 -0.63900 5.18900
H -0.84400 0.02600 7.12500
H 0.06200 1.47700 6.92100
H -1.34400 5.18600 1.93800
H -1.65100 5.96300 0.43200
H 0.00700 6.02000 1.08400
H -0.63500 6.74400 -1.40500
H 0.66500 6.97000 -2.70400
H 1.04800 6.46600 -1.03600
H 0.60800 0.50100 -4.89100
H -0.69200 -2.15600 -4.54700
H -1.26700 0.74000 -6.12900
H -2.20400 0.71400 -4.59600
H -1.96700 -0.72000 -5.45300
H 1.35600 -1.75900 -5.96700
H 1.45200 -3.15700 -4.90200
H 2.71400 -0.52200 -4.79800
H 3.48700 -2.12100 -4.52900
H 2.49500 -1.30300 -3.24000
H 0.86700 -6.33300 -0.08400
H 0.40400 -5.64200 -1.68000
H -0.89100 -5.99900 -0.46300
H -1.28300 -3.58100 4.02800
H 0.69800 -4.47800 7.75500
H 0.83300 -2.61900 7.68000
H 2.00000 -3.75400 6.97600
Mg 13.14667 1.17791 0.99331
C 13.04992 2.69136 -2.25925
C 12.65098 -1.82218 -0.55210
C 12.77719 -0.12633 3.86209
C 12.49242 4.33051 2.32703
N 12.89846 0.63355 -1.13608
C 12.94128 1.28538 -2.28831
C 12.94408 0.37266 -3.54390
C 12.24689 -0.92317 -2.90077
C 12.64887 -0.71818 -1.44164
C 10.72992 -0.89546 -2.98669
C 14.39543 0.05361 -4.04770
C 14.46898 -0.57298 -5.44187
H 15.59178 -0.21880 -6.30579
N 13.25773 -0.71913 1.56557
C 13.04882 -1.81271 0.80287
C 13.23053 -2.96712 1.69645
C 13.40154 -2.46241 3.08596
C 13.12531 -1.05331 2.89045
C 13.30947 -4.37981 1.19496
C 13.74301 -3.13843 4.37925
O 13.60480 -2.54438 5.50656
C 14.15503 -4.54713 4.29384
N 12.49153 1.93821 2.81405
C 12.47694 1.17136 3.91842
C 12.23330 2.00175 5.15595
C 12.32833 3.52464 4.67703
C 12.53084 3.30138 3.16226
C 10.89536 1.77200 5.85846
C 13.33377 4.43791 5.43049
C 14.74992 3.99378 5.14302
N 13.00796 3.19300 0.22635
C 12.69868 4.36315 0.95380
C 12.60835 5.47019 -0.02022
C 12.85057 4.85824 -1.25930
C 13.05597 3.46446 -1.07306
C 12.28703 6.82281 0.28521
C 12.96869 5.07260 -2.68366
O 12.97750 6.06157 -3.41551
C 12.97779 3.65808 -3.40854
C 14.10797 3.65207 -4.40111
O 15.28846 3.71596 -4.01516
O 13.62231 3.35426 -5.62005
C 14.70724 3.32542 -6.63686
H 12.27259 -2.77930 -0.91217
H 12.74563 -0.50583 4.88603
H 12.38896 5.36070 2.67441
H 12.35234 0.73994 -4.37379
H 12.68134 -1.83997 -3.29077
H 10.36481 0.04917 -3.36152
H 10.37504 -1.06511 -1.97856
H 10.37040 -1.74166 -3.57916
H 14.80921 -0.76878 -3.45003
H 15.01228 0.93047 -4.01261
H 13.52122 -0.48020 -5.98601
H 14.60990 -1.65087 -5.33089
H 12.98466 -4.45438 0.14981
H 12.56558 -4.95910 1.75256
H 14.29375 -4.82712 1.34912
H 13.36166 -5.12791 3.82938
H 14.44351 -4.82925 5.30826
H 15.02542 -4.61755 3.63196
H 12.99808 1.81926 5.90087
H 11.36803 4.04855 4.79184
H 11.00429 1.47874 6.91969
H 10.34689 1.01780 5.30991
H 10.21053 2.61798 5.83568
H 13.19290 4.34627 6.51026
H 13.23360 5.48889 5.18070
H 14.90174 3.17703 5.85502
H 15.45012 4.80754 5.32067
H 14.83304 3.57182 4.13471
H 12.97045 7.44083 -0.28179
H 12.36490 7.01867 1.35262
H 11.25198 6.86120 -0.06473
H 12.00813 3.53121 -3.89148
H 14.41923 4.02094 -7.43120
H 14.82582 2.26186 -6.91712
H 15.67422 3.72137 -6.34939

