%nproc=24
%mem=175gb
#p cam-b3lyp/Def2SVP td=(nstates=5)

TDDFT excited states in gaussian

0 1
Mg 10.51858 0.94753 0.79130
C 10.06761 4.39650 -0.09205
C 9.95262 0.18905 -2.48574
C 10.46304 -2.11662 1.61307
C 9.91594 1.86021 4.10031
N 10.07894 2.21606 -0.96648
C 9.99290 3.51820 -1.19316
C 9.89730 3.90495 -2.69345
C 9.29943 2.52620 -3.25956
C 9.83575 1.57170 -2.19468
C 7.78108 2.47118 -3.22922
C 11.30062 4.22250 -3.31945
C 11.25460 4.90345 -4.68910
H 12.27874 5.89417 -5.00860
N 10.73348 -0.68379 -0.31829
C 10.47974 -0.80967 -1.63777
C 10.77700 -2.21095 -1.97275
C 11.06905 -2.94318 -0.71050
C 10.73895 -1.92553 0.26700
C 10.84323 -2.71338 -3.38576
C 11.55174 -4.33391 -0.42931
O 11.50837 -4.83635 0.74903
C 11.98966 -5.12307 -1.58990
N 10.02392 -0.02958 2.55847
C 10.13637 -1.36524 2.66475
C 9.99271 -1.81226 4.10000
C 10.00155 -0.47086 4.97071
C 10.06174 0.57005 3.83128
C 8.73564 -2.61980 4.42258
C 11.05153 -0.37934 6.11168
C 12.44406 -0.31045 5.52729
N 10.25423 2.80071 1.87015
C 9.98700 2.95483 3.24816
C 9.77408 4.39626 3.49180
C 9.91054 4.98273 2.22455
C 10.16887 3.97543 1.25598
C 9.44920 4.98913 4.74443
C 9.88427 6.22369 1.48426
O 9.79653 7.41331 1.78566
C 9.85939 5.88536 -0.06857
C 10.88765 6.74742 -0.74832
O 12.09800 6.59920 -0.50399
O 10.29378 7.45093 -1.72953
C 11.27527 8.31301 -2.44038
H 9.56584 -0.17521 -3.43790
H 10.54081 -3.14664 1.96873
H 9.82020 2.23650 5.12105
H 9.21853 4.72118 -2.90978
H 9.71743 2.28474 -4.23339
H 7.35710 3.32425 -2.72063
H 7.53022 1.55671 -2.70781
H 7.38765 2.35747 -4.24343
H 11.79150 3.28011 -3.59455
H 11.89518 4.80740 -2.64489
H 10.25642 5.29372 -4.92206
H 11.43333 4.14820 -5.45830
H 10.42053 -1.98728 -4.09109
H 10.17216 -3.57674 -3.44992
H 11.84903 -3.02527 -3.67519
H 11.17017 -5.20662 -2.29977
H 12.38242 -6.05485 -1.17831
H 12.79321 -4.57963 -2.09940
H 10.83063 -2.43035 4.39825
H 9.04376 -0.31490 5.48854
H 8.95459 -3.61100 4.86266
H 8.15612 -2.72624 3.51519
H 8.03028 -2.12893 5.09095
H 11.01856 -1.27988 6.72982
H 10.90056 0.46923 6.77056
H 12.68526 -1.36104 5.33981
H 13.13701 0.13255 6.23976
H 12.43973 0.20454 4.55960
H 10.05821 5.87872 4.83513
H 9.62525 4.30020 5.56794
H 8.38442 5.18775 4.59590
H 8.85101 6.08745 -0.43177
H 10.89369 9.33763 -2.39306
H 11.39343 7.86541 -3.44509
H 12.25506 8.43133 -1.99266

