%nproc=24
%mem=175gb
#p cam-b3lyp/Def2SVP td=(nstates=5)

TDDFT excited states in gaussian

0 1
Mg 0.00000 0.00000 0.00000
C -0.21700 -2.21800 2.80100
C -1.25500 2.44200 2.02600
C -0.24500 1.85000 -2.56400
C 0.14600 -2.82400 -2.03700
N -0.61700 -0.00900 2.12600
C -0.59400 -0.90800 3.10500
C -0.93600 -0.30900 4.50200
C -1.77300 0.96400 4.03200
C -1.15500 1.16800 2.66000
C -3.26300 0.68500 3.86300
C 0.34500 0.11000 5.29900
C 0.12400 0.39700 6.78700
H 1.16800 0.03300 7.73300
N -0.18500 1.96100 -0.15200
C -0.70300 2.80000 0.77700
C -0.62000 4.15600 0.19300
C -0.18700 4.01500 -1.22500
C -0.21400 2.58300 -1.38000
C -0.88700 5.40600 0.97400
C 0.18100 5.01300 -2.27700
O 0.30300 4.69000 -3.50800
C 0.31000 6.41400 -1.83700
N -0.26500 -0.41300 -2.02900
C -0.27900 0.56900 -2.93700
C -0.19600 0.02400 -4.33200
C 0.12400 -1.53300 -4.18000
C 0.08600 -1.63200 -2.63500
C -1.45100 0.20500 -5.19700
C 1.37300 -2.07000 -4.92300
C 2.62600 -1.49000 -4.30600
N 0.15000 -2.14400 0.30300
C 0.17300 -3.13600 -0.68800
C 0.17300 -4.43800 0.00400
C 0.13300 -4.11100 1.35800
C 0.08300 -2.69500 1.50200
C 0.14900 -5.71500 -0.62300
C 0.09600 -4.62900 2.71600
O 0.20800 -5.74700 3.22100
C -0.25500 -3.42800 3.70100
C 0.71700 -3.48200 4.84800
O 1.93100 -3.25500 4.66900
O 0.03800 -3.55600 6.00300
C 0.94300 -3.58300 7.18300
H -1.85900 3.22000 2.49700
H -0.21800 2.45300 -3.47400
H 0.27600 -3.74700 -2.60500
H -1.55400 -0.94900 5.13200
H -1.58500 1.83100 4.66500
H -3.48400 -0.37700 3.96900
H -3.51100 1.02700 2.85800
H -3.85200 1.30100 4.54300
H 0.66900 1.09600 4.96600
H 1.13000 -0.63900 5.18900
H -0.84400 0.02600 7.12500
H 0.06200 1.47700 6.92100
H -1.34400 5.18600 1.93800
H -1.65100 5.96300 0.43200
H 0.00700 6.02000 1.08400
H -0.63500 6.74400 -1.40500
H 0.66500 6.97000 -2.70400
H 1.04800 6.46600 -1.03600
H 0.60800 0.50100 -4.89100
H -0.69200 -2.15600 -4.54700
H -1.26700 0.74000 -6.12900
H -2.20400 0.71400 -4.59600
H -1.96700 -0.72000 -5.45300
H 1.35600 -1.75900 -5.96700
H 1.45200 -3.15700 -4.90200
H 2.71400 -0.52200 -4.79800
H 3.48700 -2.12100 -4.52900
H 2.49500 -1.30300 -3.24000
H 0.86700 -6.33300 -0.08400
H 0.40400 -5.64200 -1.68000
H -0.89100 -5.99900 -0.46300
H -1.28300 -3.58100 4.02800
H 0.69800 -4.47800 7.75500
H 0.83300 -2.61900 7.68000
H 2.00000 -3.75400 6.97600
Mg 8.94055 0.80924 0.68562
C 8.71971 -1.41348 3.49450
C 7.68386 3.25081 2.70900
C 8.69870 2.66808 -1.87439
C 9.08051 -2.01041 -1.35783
N 8.32130 0.79794 2.80898
C 8.34029 -0.08824 3.79319
C 8.00664 0.49663 5.19182
C 7.16198 1.77874 4.72106
C 7.77968 1.98455 3.33948
C 5.68032 1.49133 4.54381
C 9.29284 0.91632 5.98653
C 9.06520 1.20568 7.47186
H 10.11481 0.84355 8.42036
N 8.75775 2.78018 0.54227
C 8.24662 3.61941 1.46732
C 8.31639 4.96350 0.87342
C 8.75799 4.82885 -0.54135
C 8.73473 3.38738 -0.68870
C 8.05757 6.21530 1.66046
C 9.12635 5.83201 -1.59215
O 9.25060 5.50167 -2.82433
C 9.24576 7.22945 -1.15125
N 8.68274 0.39823 -1.33600
C 8.66299 1.38817 -2.24570
C 8.74418 0.83986 -3.65039
C 9.06763 -0.71764 -3.48560
C 9.02744 -0.82285 -1.94524
C 7.48843 1.01096 -4.50491
C 10.31794 -1.25950 -4.23111
C 11.57364 -0.67516 -3.62518
N 9.09414 -1.32457 0.98781
C 9.11126 -2.32774 -0.00589
C 9.11099 -3.63054 0.69063
C 9.07016 -3.29244 2.05170
C 9.02625 -1.87907 2.19296
C 9.09729 -4.90869 0.06432
C 9.04349 -3.81002 3.40081
O 9.14807 -4.92755 3.90472
C 8.68771 -2.61941 4.39190
C 9.65882 -2.66458 5.53969
O 10.86919 -2.44885 5.35241
O 8.97270 -2.73885 6.69472
C 9.89230 -2.77492 7.86299
H 7.08571 4.02563 3.18937
H 8.72650 3.26493 -2.78898
H 9.22225 -2.93482 -1.92179
H 7.39494 -0.14242 5.81729
H 7.35859 2.63699 5.35833
H 5.45838 0.43984 4.64989
H 5.43180 1.83179 3.54713
H 5.09200 2.10876 5.22864
H 9.61420 1.90995 5.64864
H 10.06590 0.18094 5.87598
H 8.09106 0.83984 7.81850
H 9.00956 2.28820 7.60996
H 7.59312 5.99268 2.62903
H 7.29410 6.78252 1.11710
H 8.94913 6.83663 1.76880
H 8.30272 7.55300 -0.71714
H 9.60243 7.78146 -2.02300
H 9.99417 7.28160 -0.35264
H 9.54882 1.30934 -4.20288
H 8.24863 -1.34624 -3.86499
H 7.67427 1.55601 -5.44961
H 6.73958 1.52030 -3.91302
H 6.98165 0.08509 -4.77163
H 10.30183 -0.94329 -5.27701
H 10.39025 -2.34195 -4.22301
H 11.65587 0.29801 -4.11840
H 12.43397 -1.30365 -3.84625
H 11.44410 -0.49108 -2.55234
H 9.80816 -5.52486 0.59864
H 9.34762 -4.83651 -0.99204
H 8.05269 -5.19111 0.22026
H 7.65793 -2.76373 4.72099
H 9.64371 -3.67249 8.43767
H 9.76748 -1.80052 8.37163
H 10.94605 -2.93462 7.66663
158

Mg 0.00000 0.00000 0.00000
C -0.21700 -2.21800 2.80100
C -1.25500 2.44200 2.02600
C -0.24500 1.85000 -2.56400
C 0.14600 -2.82400 -2.03700
N -0.61700 -0.00900 2.12600
C -0.59400 -0.90800 3.10500
C -0.93600 -0.30900 4.50200
C -1.77300 0.96400 4.03200
C -1.15500 1.16800 2.66000
C -3.26300 0.68500 3.86300
C 0.34500 0.11000 5.29900
C 0.12400 0.39700 6.78700
H 1.16800 0.03300 7.73300
N -0.18500 1.96100 -0.15200
C -0.70300 2.80000 0.77700
C -0.62000 4.15600 0.19300
C -0.18700 4.01500 -1.22500
C -0.21400 2.58300 -1.38000
C -0.88700 5.40600 0.97400
C 0.18100 5.01300 -2.27700
O 0.30300 4.69000 -3.50800
C 0.31000 6.41400 -1.83700
N -0.26500 -0.41300 -2.02900
C -0.27900 0.56900 -2.93700
C -0.19600 0.02400 -4.33200
C 0.12400 -1.53300 -4.18000
C 0.08600 -1.63200 -2.63500
C -1.45100 0.20500 -5.19700
C 1.37300 -2.07000 -4.92300
C 2.62600 -1.49000 -4.30600
N 0.15000 -2.14400 0.30300
C 0.17300 -3.13600 -0.68800
C 0.17300 -4.43800 0.00400
C 0.13300 -4.11100 1.35800
C 0.08300 -2.69500 1.50200
C 0.14900 -5.71500 -0.62300
C 0.09600 -4.62900 2.71600
O 0.20800 -5.74700 3.22100
C -0.25500 -3.42800 3.70100
C 0.71700 -3.48200 4.84800
O 1.93100 -3.25500 4.66900
O 0.03800 -3.55600 6.00300
C 0.94300 -3.58300 7.18300
H -1.85900 3.22000 2.49700
H -0.21800 2.45300 -3.47400
H 0.27600 -3.74700 -2.60500
H -1.55400 -0.94900 5.13200
H -1.58500 1.83100 4.66500
H -3.48400 -0.37700 3.96900
H -3.51100 1.02700 2.85800
H -3.85200 1.30100 4.54300
H 0.66900 1.09600 4.96600
H 1.13000 -0.63900 5.18900
H -0.84400 0.02600 7.12500
H 0.06200 1.47700 6.92100
H -1.34400 5.18600 1.93800
H -1.65100 5.96300 0.43200
H 0.00700 6.02000 1.08400
H -0.63500 6.74400 -1.40500
H 0.66500 6.97000 -2.70400
H 1.04800 6.46600 -1.03600
H 0.60800 0.50100 -4.89100
H -0.69200 -2.15600 -4.54700
H -1.26700 0.74000 -6.12900
H -2.20400 0.71400 -4.59600
H -1.96700 -0.72000 -5.45300
H 1.35600 -1.75900 -5.96700
H 1.45200 -3.15700 -4.90200
H 2.71400 -0.52200 -4.79800
H 3.48700 -2.12100 -4.52900
H 2.49500 -1.30300 -3.24000
H 0.86700 -6.33300 -0.08400
H 0.40400 -5.64200 -1.68000
H -0.89100 -5.99900 -0.46300
H -1.28300 -3.58100 4.02800
H 0.69800 -4.47800 7.75500
H 0.83300 -2.61900 7.68000
H 2.00000 -3.75400 6.97600
Mg 8.94101 0.80923 0.68518
C 8.88203 -1.39805 3.51423
C 7.83061 3.26959 2.77042
C 8.55140 2.65715 -1.86449
C 8.93308 -2.02135 -1.34792
N 8.45638 0.81276 2.84327
C 8.53116 -0.06869 3.82907
C 8.29005 0.52540 5.24275
C 7.42622 1.81117 4.81913
C 7.95725 2.00579 3.40039
C 5.93443 1.53346 4.73683
C 9.62648 0.93981 5.95284
C 9.49462 1.23807 7.44797
H 10.59928 0.87313 8.33059
N 8.76298 2.78069 0.54306
C 8.31672 3.62807 1.49389
C 8.35816 4.96870 0.88960
C 8.70905 4.82396 -0.54937
C 8.66677 3.38199 -0.68726
C 8.15784 6.22616 1.68464
C 9.01745 5.81930 -1.62659
O 9.06177 5.48204 -2.86235
C 9.17384 7.21800 -1.20154
N 8.55386 0.39015 -1.31403
C 8.48371 1.37572 -2.22597
C 8.47273 0.81996 -3.63004
C 8.79529 -0.73898 -3.47756
C 8.85128 -0.83634 -1.93718
C 7.16695 0.99581 -4.40489
C 9.99256 -1.29339 -4.29723
C 11.28781 -0.71504 -3.77450
N 9.09877 -1.32412 0.98853
C 9.04658 -2.33225 0.00109
C 9.08122 -3.63158 0.70321
C 9.12832 -3.28652 2.06233
C 9.10299 -1.87220 2.19851
C 9.01949 -4.91266 0.08584
C 9.18297 -3.79727 3.41320
O 9.31141 -4.91303 3.91551
C 8.89829 -2.59930 4.41830
C 9.93929 -2.64576 5.50305
O 11.13693 -2.43958 5.23896
O 9.32663 -2.70946 6.69928
C 10.31757 -2.74635 7.80765
H 7.26912 4.05100 3.28326
H 8.52572 3.24929 -2.78219
H 9.03280 -2.94950 -1.91472
H 7.71454 -0.10620 5.90881
H 7.66833 2.67112 5.43819
H 5.71245 0.48411 4.86227
H 5.62608 1.87079 3.75593
H 5.39453 2.15842 5.45396
H 9.93272 1.92946 5.59013
H 10.38605 0.19841 5.79789
H 8.54173 0.88089 7.85707
H 9.45514 2.32163 7.58350
H 7.75368 6.01161 2.68165
H 7.36561 6.79613 1.18728
H 9.05866 6.84165 1.73344
H 8.26217 7.55039 -0.71078
H 9.47876 7.76317 -2.09691
H 9.97130 7.26874 -0.45180
H 9.24423 1.28098 -4.23448
H 7.94981 -1.36358 -3.80139
H 7.29675 1.53488 -5.36230
H 6.46026 1.51337 -3.76987
H 6.63812 0.07227 -4.63430
H 9.91290 -0.98221 -5.34173
H 10.05787 -2.37627 -4.28790
H 11.34549 0.25509 -4.27711
H 12.12824 -1.35072 -4.04582
H 11.22720 -0.52478 -2.69665
H 9.75833 -5.53125 0.57774
H 9.20342 -4.84745 -0.98453
H 7.98486 -5.18686 0.30859
H 7.89027 -2.73466 4.81219
H 10.09949 -3.63930 8.40160
H 10.23159 -1.76860 8.31791
H 11.35578 -2.91452 7.54635
158

Mg 0.00000 0.00000 0.00000
C -0.21700 -2.21800 2.80100
C -1.25500 2.44200 2.02600
C -0.24500 1.85000 -2.56400
C 0.14600 -2.82400 -2.03700
N -0.61700 -0.00900 2.12600
C -0.59400 -0.90800 3.10500
C -0.93600 -0.30900 4.50200
C -1.77300 0.96400 4.03200
C -1.15500 1.16800 2.66000
C -3.26300 0.68500 3.86300
C 0.34500 0.11000 5.29900
C 0.12400 0.39700 6.78700
H 1.16800 0.03300 7.73300
N -0.18500 1.96100 -0.15200
C -0.70300 2.80000 0.77700
C -0.62000 4.15600 0.19300
C -0.18700 4.01500 -1.22500
C -0.21400 2.58300 -1.38000
C -0.88700 5.40600 0.97400
C 0.18100 5.01300 -2.27700
O 0.30300 4.69000 -3.50800
C 0.31000 6.41400 -1.83700
N -0.26500 -0.41300 -2.02900
C -0.27900 0.56900 -2.93700
C -0.19600 0.02400 -4.33200
C 0.12400 -1.53300 -4.18000
C 0.08600 -1.63200 -2.63500
C -1.45100 0.20500 -5.19700
C 1.37300 -2.07000 -4.92300
C 2.62600 -1.49000 -4.30600
N 0.15000 -2.14400 0.30300
C 0.17300 -3.13600 -0.68800
C 0.17300 -4.43800 0.00400
C 0.13300 -4.11100 1.35800
C 0.08300 -2.69500 1.50200
C 0.14900 -5.71500 -0.62300
C 0.09600 -4.62900 2.71600
O 0.20800 -5.74700 3.22100
C -0.25500 -3.42800 3.70100
C 0.71700 -3.48200 4.84800
O 1.93100 -3.25500 4.66900
O 0.03800 -3.55600 6.00300
C 0.94300 -3.58300 7.18300
H -1.85900 3.22000 2.49700
H -0.21800 2.45300 -3.47400
H 0.27600 -3.74700 -2.60500
H -1.55400 -0.94900 5.13200
H -1.58500 1.83100 4.66500
H -3.48400 -0.37700 3.96900
H -3.51100 1.02700 2.85800
H -3.85200 1.30100 4.54300
H 0.66900 1.09600 4.96600
H 1.13000 -0.63900 5.18900
H -0.84400 0.02600 7.12500
H 0.06200 1.47700 6.92100
H -1.34400 5.18600 1.93800
H -1.65100 5.96300 0.43200
H 0.00700 6.02000 1.08400
H -0.63500 6.74400 -1.40500
H 0.66500 6.97000 -2.70400
H 1.04800 6.46600 -1.03600
H 0.60800 0.50100 -4.89100
H -0.69200 -2.15600 -4.54700
H -1.26700 0.74000 -6.12900
H -2.20400 0.71400 -4.59600
H -1.96700 -0.72000 -5.45300
H 1.35600 -1.75900 -5.96700
H 1.45200 -3.15700 -4.90200
H 2.71400 -0.52200 -4.79800
H 3.48700 -2.12100 -4.52900
H 2.49500 -1.30300 -3.24000
H 0.86700 -6.33300 -0.08400
H 0.40400 -5.64200 -1.68000
H -0.89100 -5.99900 -0.46300
H -1.28300 -3.58100 4.02800
H 0.69800 -4.47800 7.75500
H 0.83300 -2.61900 7.68000
H 2.00000 -3.75400 6.97600
Mg 8.94144 0.80921 0.68471
C 9.04536 -1.38368 3.52364
C 7.98106 3.28763 2.82240
C 8.40493 2.64733 -1.84529
C 8.78649 -2.03118 -1.32871
N 8.59343 0.82679 2.86894
C 8.72402 -0.05032 3.85279
C 8.57629 0.55240 5.27562
C 7.69631 1.84220 4.90023
C 8.13844 2.02607 3.44992
C 6.20044 1.57473 4.91329
C 9.95750 0.96076 5.89815
C 9.92190 1.26729 7.39699
H 11.07734 0.89883 8.21041
N 8.76824 2.78117 0.54352
C 8.38840 3.63637 1.51596
C 8.40090 4.97368 0.90310
C 8.65966 4.81939 -0.55428
C 8.59899 3.37709 -0.68153
C 8.25951 6.23643 1.70242
C 8.90652 5.80721 -1.65404
O 8.87078 5.46358 -2.88833
C 9.09882 7.20683 -1.24714
N 8.42657 0.38309 -1.28396
C 8.30595 1.36465 -2.19495
C 8.20296 0.80210 -3.59256
C 8.52385 -0.75833 -3.45232
C 8.67588 -0.84852 -1.91800
C 6.85228 0.98344 -4.28480
C 9.66344 -1.32527 -4.34260
C 10.99288 -0.75361 -3.90536
N 9.10344 -1.32369 0.98896
C 8.98243 -2.33626 0.01215
C 9.05229 -3.63234 0.71764
C 9.18706 -3.28096 2.06926
C 9.17996 -1.86584 2.19920
C 8.94317 -4.91596 0.11223
C 9.32303 -3.78544 3.41674
O 9.47519 -4.89961 3.91595
C 9.11024 -2.58056 4.43132
C 10.21702 -2.62911 5.44877
O 11.39707 -2.43277 5.10887
O 9.68033 -2.68258 6.68144
C 10.73870 -2.72108 7.72556
H 7.45824 4.07553 3.36531
H 8.32566 3.23513 -2.76272
H 8.84407 -2.96279 -1.89569
H 8.03950 -0.07180 5.97989
H 7.98269 2.70343 5.49826
H 5.97965 0.52761 5.05803
H 5.83336 1.90942 3.95190
H 5.71094 2.20703 5.65956
H 10.24706 1.94641 5.51162
H 10.70076 0.21321 5.69975
H 8.99419 0.91892 7.86703
H 9.89838 2.35175 7.52894
H 7.91735 6.02966 2.72398
H 7.44147 6.80958 1.25277
H 9.16577 6.84571 1.69125
H 8.22208 7.54811 -0.70187
H 9.35057 7.74541 -2.16280
H 9.94215 7.25556 -0.54926
H 8.93806 1.25463 -4.24673
H 7.65546 -1.37847 -3.71906
H 6.92532 1.51686 -5.25134
H 6.19044 1.50914 -3.60941
H 6.30381 0.06258 -4.47559
H 9.52041 -1.01866 -5.38168
H 9.72184 -2.40854 -4.33160
H 11.02546 0.21360 -4.41578
H 11.81026 -1.39659 -4.22552
H 11.00144 -0.55763 -2.82686
H 9.70724 -5.53738 0.56005
H 9.05990 -4.85732 -0.96791
H 7.92274 -5.18168 0.40100
H 8.12807 -2.70680 4.88847
H 10.55231 -3.60952 8.33681
H 10.69162 -1.74025 8.23498
H 11.75727 -2.89792 7.40046
158

Mg 0.00000 0.00000 0.00000
C -0.21700 -2.21800 2.80100
C -1.25500 2.44200 2.02600
C -0.24500 1.85000 -2.56400
C 0.14600 -2.82400 -2.03700
N -0.61700 -0.00900 2.12600
C -0.59400 -0.90800 3.10500
C -0.93600 -0.30900 4.50200
C -1.77300 0.96400 4.03200
C -1.15500 1.16800 2.66000
C -3.26300 0.68500 3.86300
C 0.34500 0.11000 5.29900
C 0.12400 0.39700 6.78700
H 1.16800 0.03300 7.73300
N -0.18500 1.96100 -0.15200
C -0.70300 2.80000 0.77700
C -0.62000 4.15600 0.19300
C -0.18700 4.01500 -1.22500
C -0.21400 2.58300 -1.38000
C -0.88700 5.40600 0.97400
C 0.18100 5.01300 -2.27700
O 0.30300 4.69000 -3.50800
C 0.31000 6.41400 -1.83700
N -0.26500 -0.41300 -2.02900
C -0.27900 0.56900 -2.93700
C -0.19600 0.02400 -4.33200
C 0.12400 -1.53300 -4.18000
C 0.08600 -1.63200 -2.63500
C -1.45100 0.20500 -5.19700
C 1.37300 -2.07000 -4.92300
C 2.62600 -1.49000 -4.30600
N 0.15000 -2.14400 0.30300
C 0.17300 -3.13600 -0.68800
C 0.17300 -4.43800 0.00400
C 0.13300 -4.11100 1.35800
C 0.08300 -2.69500 1.50200
C 0.14900 -5.71500 -0.62300
C 0.09600 -4.62900 2.71600
O 0.20800 -5.74700 3.22100
C -0.25500 -3.42800 3.70100
C 0.71700 -3.48200 4.84800
O 1.93100 -3.25500 4.66900
O 0.03800 -3.55600 6.00300
C 0.94300 -3.58300 7.18300
H -1.85900 3.22000 2.49700
H -0.21800 2.45300 -3.47400
H 0.27600 -3.74700 -2.60500
H -1.55400 -0.94900 5.13200
H -1.58500 1.83100 4.66500
H -3.48400 -0.37700 3.96900
H -3.51100 1.02700 2.85800
H -3.85200 1.30100 4.54300
H 0.66900 1.09600 4.96600
H 1.13000 -0.63900 5.18900
H -0.84400 0.02600 7.12500
H 0.06200 1.47700 6.92100
H -1.34400 5.18600 1.93800
H -1.65100 5.96300 0.43200
H 0.00700 6.02000 1.08400
H -0.63500 6.74400 -1.40500
H 0.66500 6.97000 -2.70400
H 1.04800 6.46600 -1.03600
H 0.60800 0.50100 -4.89100
H -0.69200 -2.15600 -4.54700
H -1.26700 0.74000 -6.12900
H -2.20400 0.71400 -4.59600
H -1.96700 -0.72000 -5.45300
H 1.35600 -1.75900 -5.96700
H 1.45200 -3.15700 -4.90200
H 2.71400 -0.52200 -4.79800
H 3.48700 -2.12100 -4.52900
H 2.49500 -1.30300 -3.24000
H 0.86700 -6.33300 -0.08400
H 0.40400 -5.64200 -1.68000
H -0.89100 -5.99900 -0.46300
H -1.28300 -3.58100 4.02800
H 0.69800 -4.47800 7.75500
H 0.83300 -2.61900 7.68000
H 2.00000 -3.75400 6.97600
Mg 8.94184 0.80919 0.68422
C 9.20906 -1.37042 3.52270
C 8.13459 3.30485 2.86473
C 8.25990 2.63864 -1.81687
C 8.64133 -2.03987 -1.30028
N 8.73192 0.83997 2.88587
C 8.91812 -0.03321 3.86425
C 8.86421 0.57753 5.29031
C 7.97117 1.87171 4.96404
C 8.32251 2.04529 3.48787
C 6.47729 1.61496 5.07247
C 10.28456 0.97908 5.82265
C 10.34531 1.29321 7.31911
H 11.54706 0.92052 8.06031
N 8.77353 2.78162 0.54364
C 8.46138 3.64426 1.53343
C 8.44444 4.97843 0.91386
C 8.61003 4.81514 -0.55605
C 8.53167 3.37271 -0.67152
C 8.36215 6.24606 1.71372
C 8.79400 5.79577 -1.67441
O 8.67842 5.44635 -2.90216
C 9.02102 7.19596 -1.28788
N 8.30137 0.37709 -1.24592
C 8.13041 1.35501 -2.15277
C 7.93596 0.78634 -3.53812
C 8.25441 -0.77562 -3.40997
C 8.50195 -0.85937 -1.88777
C 6.54572 0.97391 -4.14511
C 9.33191 -1.35504 -4.36703
C 10.69006 -0.79072 -4.01723
N 9.10812 -1.32329 0.98909
C 8.91908 -2.33975 0.02724
C 9.02432 -3.63282 0.73387
C 9.24616 -3.27578 2.07245
C 9.25687 -1.86002 2.19501
C 8.86863 -4.91859 0.14338
C 9.46311 -3.77460 3.41141
O 9.63877 -4.88736 3.90603
C 9.32271 -2.56327 4.43089
C 10.49089 -2.61471 5.37706
O 11.64856 -2.42845 4.96267
O 10.03239 -2.65830 6.64128
C 11.15400 -2.69922 7.61705
H 7.65230 4.09911 3.43519
H 8.12712 3.22248 -2.73065
H 8.65683 -2.97464 -1.86476
H 8.36851 -0.03937 6.03023
H 8.30042 2.73379 5.53829
H 6.25891 0.57017 5.23639
H 6.05280 1.94754 4.13426
H 6.03998 2.25439 5.84462
H 10.55596 1.96073 5.41344
H 11.00878 0.22529 5.58196
H 9.44663 0.95377 7.84836
H 10.33751 2.37845 7.44648
H 8.08348 6.04675 2.75584
H 7.52140 6.82281 1.31328
H 9.27005 6.84880 1.64239
H 8.18262 7.54615 -0.69045
H 9.21838 7.72823 -2.22041
H 9.90685 7.24211 -0.64462
H 8.63156 1.23041 -4.23958
H 7.36677 -1.39087 -3.61832
H 6.56149 1.50204 -5.11716
H 5.93122 1.50761 -3.43230
H 5.98009 0.05605 -4.29615
H 9.12594 -1.05252 -5.39670
H 9.38351 -2.43862 -4.35393
H 10.69708 0.17371 -4.53385
H 11.48131 -1.44107 -4.38466
H 10.76772 -0.58952 -2.94245
H 9.65509 -5.54323 0.54564
H 8.91765 -4.86608 -0.94226
H 7.86659 -5.17562 0.49709
H 8.37038 -2.68026 4.94950
H 11.00035 -3.58330 8.24353
H 11.14570 -1.71559 8.12317
H 12.14890 -2.88491 7.22956
158

Mg 0.00000 0.00000 0.00000
C -0.21700 -2.21800 2.80100
C -1.25500 2.44200 2.02600
C -0.24500 1.85000 -2.56400
C 0.14600 -2.82400 -2.03700
N -0.61700 -0.00900 2.12600
C -0.59400 -0.90800 3.10500
C -0.93600 -0.30900 4.50200
C -1.77300 0.96400 4.03200
C -1.15500 1.16800 2.66000
C -3.26300 0.68500 3.86300
C 0.34500 0.11000 5.29900
C 0.12400 0.39700 6.78700
H 1.16800 0.03300 7.73300
N -0.18500 1.96100 -0.15200
C -0.70300 2.80000 0.77700
C -0.62000 4.15600 0.19300
C -0.18700 4.01500 -1.22500
C -0.21400 2.58300 -1.38000
C -0.88700 5.40600 0.97400
C 0.18100 5.01300 -2.27700
O 0.30300 4.69000 -3.50800
C 0.31000 6.41400 -1.83700
N -0.26500 -0.41300 -2.02900
C -0.27900 0.56900 -2.93700
C -0.19600 0.02400 -4.33200
C 0.12400 -1.53300 -4.18000
C 0.08600 -1.63200 -2.63500
C -1.45100 0.20500 -5.19700
C 1.37300 -2.07000 -4.92300
C 2.62600 -1.49000 -4.30600
N 0.15000 -2.14400 0.30300
C 0.17300 -3.13600 -0.68800
C 0.17300 -4.43800 0.00400
C 0.13300 -4.11100 1.35800
C 0.08300 -2.69500 1.50200
C 0.14900 -5.71500 -0.62300
C 0.09600 -4.62900 2.71600
O 0.20800 -5.74700 3.22100
C -0.25500 -3.42800 3.70100
C 0.71700 -3.48200 4.84800
O 1.93100 -3.25500 4.66900
O 0.03800 -3.55600 6.00300
C 0.94300 -3.58300 7.18300
H -1.85900 3.22000 2.49700
H -0.21800 2.45300 -3.47400
H 0.27600 -3.74700 -2.60500
H -1.55400 -0.94900 5.13200
H -1.58500 1.83100 4.66500
H -3.48400 -0.37700 3.96900
H -3.51100 1.02700 2.85800
H -3.85200 1.30100 4.54300
H 0.66900 1.09600 4.96600
H 1.13000 -0.63900 5.18900
H -0.84400 0.02600 7.12500
H 0.06200 1.47700 6.92100
H -1.34400 5.18600 1.93800
H -1.65100 5.96300 0.43200
H 0.00700 6.02000 1.08400
H -0.63500 6.74400 -1.40500
H 0.66500 6.97000 -2.70400
H 1.04800 6.46600 -1.03600
H 0.60800 0.50100 -4.89100
H -0.69200 -2.15600 -4.54700
H -1.26700 0.74000 -6.12900
H -2.20400 0.71400 -4.59600
H -1.96700 -0.72000 -5.45300
H 1.35600 -1.75900 -5.96700
H 1.45200 -3.15700 -4.90200
H 2.71400 -0.52200 -4.79800
H 3.48700 -2.12100 -4.52900
H 2.49500 -1.30300 -3.24000
H 0.86700 -6.33300 -0.08400
H 0.40400 -5.64200 -1.68000
H -0.89100 -5.99900 -0.46300
H -1.28300 -3.58100 4.02800
H 0.69800 -4.47800 7.75500
H 0.83300 -2.61900 7.68000
H 2.00000 -3.75400 6.97600
Mg 8.94220 0.80916 0.68371
C 9.37246 -1.35834 3.51141
C 8.29059 3.32119 2.89724
C 8.11688 2.63113 -1.77936
C 8.49819 -2.04739 -1.26274
N 8.87129 0.85224 2.89399
C 9.11267 -0.01743 3.86340
C 9.15265 0.60067 5.28675
C 8.24969 1.89956 5.01031
C 8.50873 2.06340 3.51407
C 6.76387 1.65401 5.21372
C 10.60634 0.99471 5.72667
C 10.76316 1.31574 7.21465
H 12.00655 0.93813 7.88089
N 8.77881 2.78203 0.54343
C 8.53536 3.65172 1.54625
C 8.48860 4.98292 0.92184
C 8.56037 4.81124 -0.55467
C 8.46509 3.36886 -0.65728
C 8.46537 6.25501 1.71850
C 8.68035 5.78503 -1.68761
O 8.48546 5.43042 -2.90379
C 8.94073 7.18545 -1.32359
N 8.17877 0.37217 -1.20005
C 7.95781 1.34681 -2.09959
C 7.67281 0.77276 -3.46693
C 7.98805 -0.79079 -3.35069
C 8.33020 -0.86882 -1.84661
C 6.24848 0.96724 -3.98639
C 8.99930 -1.38256 -4.37043
C 10.38056 -0.82623 -4.10965
N 9.11281 -1.32293 0.98892
C 8.85678 -2.34273 0.04630
C 8.99742 -3.63303 0.75183
C 9.30538 -3.27101 2.07190
C 9.33340 -1.85478 2.18598
C 8.79619 -4.92054 0.17916
C 9.60266 -3.76479 3.39723
O 9.80147 -4.87633 3.88578
C 9.53485 -2.54749 4.41703
C 10.75981 -2.60261 5.28821
O 11.89038 -2.42664 4.80093
O 10.38138 -2.63673 6.57895
C 11.56180 -2.68085 7.48255
H 7.85052 4.12165 3.49262
H 7.93091 3.21140 -2.68610
H 8.47182 -2.98501 -1.82207
H 8.70024 -0.00904 6.05963
H 8.62024 2.76209 5.55812
H 6.54912 0.61162 5.39662
H 6.28352 1.98499 4.30227
H 6.38031 2.30032 6.00839
H 10.85816 1.97237 5.29597
H 11.30886 0.23460 5.44499
H 9.89723 0.98531 7.80111
H 10.77077 2.40161 7.33645
H 8.25140 6.06281 2.77712
H 7.60505 6.83577 1.36859
H 9.37106 6.85092 1.58706
H 8.14394 7.54454 -0.67656
H 9.08271 7.71172 -2.26951
H 9.86553 7.22844 -0.73750
H 8.32595 1.20841 -4.21306
H 7.08491 -1.40071 -3.49957
H 6.20672 1.49048 -4.96033
H 5.68364 1.50880 -3.23926
H 5.66824 0.05271 -4.09669
H 8.73110 -1.08364 -5.38673
H 9.04426 -2.46640 -4.35480
H 10.36166 0.13559 -4.63084
H 11.14271 -1.48399 -4.52257
H 10.52698 -0.62031 -3.04297
H 9.60210 -5.54878 0.53456
H 8.77723 -4.87371 -0.90768
H 7.81663 -5.16868 0.59648
H 8.61622 -2.65515 4.99505
H 11.44182 -3.56072 8.12216
H 11.59202 -1.69471 7.98292
H 12.52909 -2.87552 7.03433
158

Mg 0.00000 0.00000 0.00000
C -0.21700 -2.21800 2.80100
C -1.25500 2.44200 2.02600
C -0.24500 1.85000 -2.56400
C 0.14600 -2.82400 -2.03700
N -0.61700 -0.00900 2.12600
C -0.59400 -0.90800 3.10500
C -0.93600 -0.30900 4.50200
C -1.77300 0.96400 4.03200
C -1.15500 1.16800 2.66000
C -3.26300 0.68500 3.86300
C 0.34500 0.11000 5.29900
C 0.12400 0.39700 6.78700
H 1.16800 0.03300 7.73300
N -0.18500 1.96100 -0.15200
C -0.70300 2.80000 0.77700
C -0.62000 4.15600 0.19300
C -0.18700 4.01500 -1.22500
C -0.21400 2.58300 -1.38000
C -0.88700 5.40600 0.97400
C 0.18100 5.01300 -2.27700
O 0.30300 4.69000 -3.50800
C 0.31000 6.41400 -1.83700
N -0.26500 -0.41300 -2.02900
C -0.27900 0.56900 -2.93700
C -0.19600 0.02400 -4.33200
C 0.12400 -1.53300 -4.18000
C 0.08600 -1.63200 -2.63500
C -1.45100 0.20500 -5.19700
C 1.37300 -2.07000 -4.92300
C 2.62600 -1.49000 -4.30600
N 0.15000 -2.14400 0.30300
C 0.17300 -3.13600 -0.68800
C 0.17300 -4.43800 0.00400
C 0.13300 -4.11100 1.35800
C 0.08300 -2.69500 1.50200
C 0.14900 -5.71500 -0.62300
C 0.09600 -4.62900 2.71600
O 0.20800 -5.74700 3.22100
C -0.25500 -3.42800 3.70100
C 0.71700 -3.48200 4.84800
O 1.93100 -3.25500 4.66900
O 0.03800 -3.55600 6.00300
C 0.94300 -3.58300 7.18300
H -1.85900 3.22000 2.49700
H -0.21800 2.45300 -3.47400
H 0.27600 -3.74700 -2.60500
H -1.55400 -0.94900 5.13200
H -1.58500 1.83100 4.66500
H -3.48400 -0.37700 3.96900
H -3.51100 1.02700 2.85800
H -3.85200 1.30100 4.54300
H 0.66900 1.09600 4.96600
H 1.13000 -0.63900 5.18900
H -0.84400 0.02600 7.12500
H 0.06200 1.47700 6.92100
H -1.34400 5.18600 1.93800
H -1.65100 5.96300 0.43200
H 0.00700 6.02000 1.08400
H -0.63500 6.74400 -1.40500
H 0.66500 6.97000 -2.70400
H 1.04800 6.46600 -1.03600
H 0.60800 0.50100 -4.89100
H -0.69200 -2.15600 -4.54700
H -1.26700 0.74000 -6.12900
H -2.20400 0.71400 -4.59600
H -1.96700 -0.72000 -5.45300
H 1.35600 -1.75900 -5.96700
H 1.45200 -3.15700 -4.90200
H 2.71400 -0.52200 -4.79800
H 3.48700 -2.12100 -4.52900
H 2.49500 -1.30300 -3.24000
H 0.86700 -6.33300 -0.08400
H 0.40400 -5.64200 -1.68000
H -0.89100 -5.99900 -0.46300
H -1.28300 -3.58100 4.02800
H 0.69800 -4.47800 7.75500
H 0.83300 -2.61900 7.68000
H 2.00000 -3.75400 6.97600
Mg 8.94254 0.80913 0.68317
C 9.53491 -1.34748 3.48981
C 8.44844 3.33657 2.91980
C 7.97646 2.62482 -1.73290
C 8.35765 -2.05371 -1.21624
N 9.01097 0.86356 2.89328
C 9.30688 -0.00304 3.85025
C 9.44044 0.62174 5.26495
C 8.53075 1.92566 5.03883
C 8.69635 2.08030 3.52842
C 7.05902 1.69170 5.33649
C 10.92156 1.00756 5.61058
C 11.17377 1.33477 7.08403
H 12.45397 0.95159 7.67286
N 8.78408 2.78239 0.54289
C 8.61006 3.65871 1.55436
C 8.53320 4.98713 0.92701
C 8.51086 4.80770 -0.55016
C 8.39951 3.36554 -0.63887
C 8.56874 6.26325 1.71674
C 8.56602 5.77504 -1.69358
O 8.29267 5.41586 -2.89321
C 8.85828 7.17534 -1.35413
N 8.05926 0.36835 -1.14655
C 7.78884 1.34011 -2.03563
C 7.41457 0.76140 -3.37928
C 7.72585 -0.80377 -3.27471
C 8.16131 -0.87685 -1.79470
C 5.96176 0.96347 -3.80928
C 8.66696 -1.40772 -4.35278
C 10.06563 -0.85997 -4.18226
N 9.11748 -1.32260 0.98846
C 8.79578 -2.34516 0.06925
C 8.97171 -3.63295 0.77144
C 9.36447 -3.26666 2.06761
C 9.40924 -1.85013 2.17212
C 8.72612 -4.92179 0.21943
C 9.74109 -3.75603 3.37427
O 9.96266 -4.86655 3.85530
C 9.74580 -2.53330 4.38979
C 11.02268 -2.59286 5.18259
O 12.12157 -2.42735 4.62432
O 10.72590 -2.61795 6.49471
C 11.96045 -2.66604 7.32260
H 8.05211 4.14306 3.53735
H 7.73782 3.20195 -2.62925
H 8.28980 -2.99385 -1.76779
H 9.03336 0.01907 6.06798
H 8.94086 2.78821 5.55767
H 6.84910 0.65178 5.53808
H 6.52459 2.02162 4.45525
H 6.73056 2.34462 6.15021
H 11.15245 1.98129 5.15969
H 11.59979 0.24110 5.28940
H 10.34418 1.01340 7.72549
H 11.19640 2.42114 7.19931
H 8.42042 6.07778 2.78772
H 7.69210 6.84840 1.41846
H 9.46842 6.85204 1.52548
H 8.10620 7.54326 -0.66026
H 8.94411 7.69593 -2.30990
H 9.81837 7.21461 -0.82753
H 8.02248 1.18872 -4.16729
H 6.81101 -1.40796 -3.36331
H 5.86243 1.48221 -4.78145
H 5.44870 1.51271 -3.03105
H 5.36953 0.05257 -3.87803
H 8.33745 -1.11189 -5.35181
H 8.70543 -2.49177 -4.33421
H 10.02056 0.09938 -4.70636
H 10.79583 -1.52517 -4.63872
H 10.28020 -0.64987 -3.12799
H 9.54849 -5.55401 0.52686
H 8.63921 -4.88017 -0.86430
H 7.77306 -5.16089 0.69878
H 8.86460 -2.63157 5.02494
H 11.87493 -3.54189 7.97319
H 12.02877 -1.67770 7.81481
H 12.89631 -2.86980 6.81556
158

Mg 0.00000 0.00000 0.00000
C -0.21700 -2.21800 2.80100
C -1.25500 2.44200 2.02600
C -0.24500 1.85000 -2.56400
C 0.14600 -2.82400 -2.03700
N -0.61700 -0.00900 2.12600
C -0.59400 -0.90800 3.10500
C -0.93600 -0.30900 4.50200
C -1.77300 0.96400 4.03200
C -1.15500 1.16800 2.66000
C -3.26300 0.68500 3.86300
C 0.34500 0.11000 5.29900
C 0.12400 0.39700 6.78700
H 1.16800 0.03300 7.73300
N -0.18500 1.96100 -0.15200
C -0.70300 2.80000 0.77700
C -0.62000 4.15600 0.19300
C -0.18700 4.01500 -1.22500
C -0.21400 2.58300 -1.38000
C -0.88700 5.40600 0.97400
C 0.18100 5.01300 -2.27700
O 0.30300 4.69000 -3.50800
C 0.31000 6.41400 -1.83700
N -0.26500 -0.41300 -2.02900
C -0.27900 0.56900 -2.93700
C -0.19600 0.02400 -4.33200
C 0.12400 -1.53300 -4.18000
C 0.08600 -1.63200 -2.63500
C -1.45100 0.20500 -5.19700
C 1.37300 -2.07000 -4.92300
C 2.62600 -1.49000 -4.30600
N 0.15000 -2.14400 0.30300
C 0.17300 -3.13600 -0.68800
C 0.17300 -4.43800 0.00400
C 0.13300 -4.11100 1.35800
C 0.08300 -2.69500 1.50200
C 0.14900 -5.71500 -0.62300
C 0.09600 -4.62900 2.71600
O 0.20800 -5.74700 3.22100
C -0.25500 -3.42800 3.70100
C 0.71700 -3.48200 4.84800
O 1.93100 -3.25500 4.66900
O 0.03800 -3.55600 6.00300
C 0.94300 -3.58300 7.18300
H -1.85900 3.22000 2.49700
H -0.21800 2.45300 -3.47400
H 0.27600 -3.74700 -2.60500
H -1.55400 -0.94900 5.13200
H -1.58500 1.83100 4.66500
H -3.48400 -0.37700 3.96900
H -3.51100 1.02700 2.85800
H -3.85200 1.30100 4.54300
H 0.66900 1.09600 4.96600
H 1.13000 -0.63900 5.18900
H -0.84400 0.02600 7.12500
H 0.06200 1.47700 6.92100
H -1.34400 5.18600 1.93800
H -1.65100 5.96300 0.43200
H 0.00700 6.02000 1.08400
H -0.63500 6.74400 -1.40500
H 0.66500 6.97000 -2.70400
H 1.04800 6.46600 -1.03600
H 0.60800 0.50100 -4.89100
H -0.69200 -2.15600 -4.54700
H -1.26700 0.74000 -6.12900
H -2.20400 0.71400 -4.59600
H -1.96700 -0.72000 -5.45300
H 1.35600 -1.75900 -5.96700
H 1.45200 -3.15700 -4.90200
H 2.71400 -0.52200 -4.79800
H 3.48700 -2.12100 -4.52900
H 2.49500 -1.30300 -3.24000
H 0.86700 -6.33300 -0.08400
H 0.40400 -5.64200 -1.68000
H -0.89100 -5.99900 -0.46300
H -1.28300 -3.58100 4.02800
H 0.69800 -4.47800 7.75500
H 0.83300 -2.61900 7.68000
H 2.00000 -3.75400 6.97600
Mg 8.94284 0.80909 0.68261
C 9.69574 -1.33788 3.45799
C 8.60749 3.35093 2.93232
C 7.83919 2.61974 -1.67767
C 8.22026 -2.05880 -1.16098
N 9.15041 0.87389 2.88374
C 9.49997 0.00991 3.82485
C 9.72643 0.64065 5.22501
C 8.81322 1.94990 5.04951
C 8.88462 2.09593 3.53087
C 7.36154 1.72789 5.44027
C 11.22893 1.01760 5.47485
C 11.57547 1.35023 6.92778
H 12.88751 0.96083 7.43707
N 8.78930 2.78272 0.54202
C 8.68516 3.66522 1.55772
C 8.57806 4.99105 0.92934
C 8.46171 4.80454 -0.54253
C 8.33520 3.36279 -0.61635
C 8.67185 6.27075 1.70845
C 8.45148 5.76583 -1.69231
O 8.10084 5.40272 -2.87046
C 8.77402 7.16566 -1.37938
N 7.94333 0.36564 -1.08563
C 7.62418 1.33493 -1.96115
C 7.16228 0.75231 -3.27553
C 7.46886 -0.81450 -3.18235
C 7.99597 -0.88342 -1.73225
C 5.68672 0.96262 -3.61449
C 8.33623 -1.43043 -4.31416
C 9.74654 -0.89183 -4.23476
N 9.12211 -1.32230 0.98771
C 8.73633 -2.34705 0.09600
C 8.94728 -3.63260 0.79262
C 9.42321 -3.26276 2.05958
C 9.48410 -1.84608 2.15350
C 8.65872 -4.92235 0.26403
C 9.87787 -3.74838 3.34261
O 10.12167 -4.85808 3.81470
C 9.95471 -2.52074 4.34928
C 11.27846 -2.58551 5.06061
O 12.34119 -2.43057 4.43354
O 11.06457 -2.60204 6.38890
C 12.34835 -2.65486 7.13785
H 8.25625 4.16326 3.56923
H 7.54862 3.19415 -2.56034
H 8.11149 -3.00112 -1.70214
H 9.36654 0.04485 6.05523
H 9.26098 2.81203 5.53694
H 7.15764 0.69049 5.66020
H 6.77505 2.05729 4.59258
H 7.08933 2.38713 6.26951
H 11.43765 1.98743 5.00515
H 11.88041 0.24476 5.11581
H 10.78567 1.03793 7.62179
H 11.61269 2.43697 7.03560
H 8.58988 6.09160 2.78761
H 7.78220 6.86066 1.46269
H 9.56171 6.85216 1.45791
H 8.06955 7.54234 -0.64162
H 8.80314 7.68093 -2.34142
H 9.76555 7.20068 -0.91434
H 7.72235 1.17142 -4.10243
H 6.54617 -1.41259 -3.21008
H 5.53002 1.47727 -4.58127
H 5.22733 1.51931 -2.80852
H 5.08516 0.05563 -3.64103
H 7.94660 -1.13717 -5.29208
H 8.36841 -2.51462 -4.29225