%nproc=24
%mem=175gb
#p cam-b3lyp/Def2SVP td=(nstates=5)

TDDFT excited states in gaussian

0 1
Mg 15.75822 1.41694 1.20410
C 15.93490 4.11082 3.56861
C 16.25530 -0.71405 3.82066
C 16.05740 -0.93879 -0.90028
C 16.41653 3.75319 -1.29676
N 16.04365 1.77263 3.36842
C 16.03030 2.83411 4.16051
C 16.04368 2.50491 5.67742
C 16.71512 1.04811 5.60141
C 16.28604 0.65458 4.18943
C 18.23370 1.08223 5.64707
C 14.59965 2.44070 6.28788
C 14.54787 2.43037 7.81725
H 13.44612 3.12172 8.48106
N 15.61713 -0.54766 1.44695
C 15.83053 -1.24459 2.58274
C 15.61966 -2.65792 2.23318
C 15.42582 -2.75307 0.76073
C 15.71972 -1.38958 0.36752
C 15.53692 -3.74720 3.26276
C 15.05193 -3.88698 -0.14516
O 15.17336 -3.80000 -1.41815
C 14.62790 -5.13459 0.50689
N 16.38421 1.36784 -0.77783
C 16.36917 0.22086 -1.47936
C 16.59613 0.47791 -2.95001
C 16.52564 2.06604 -3.12445
C 16.35131 2.47558 -1.64550
C 17.91742 -0.03821 -3.51939
C 15.51433 2.61527 -4.16764
C 14.09992 2.34884 -3.70520
N 15.93201 3.56756 1.09142
C 16.23813 4.33992 -0.05044
C 16.35879 5.74388 0.39314
C 16.13543 5.68732 1.77712
C 15.91269 4.34038 2.17162
C 16.68718 6.85306 -0.43631
C 16.04795 6.45944 2.99568
O 16.06349 7.65945 3.26671
C 16.03949 5.45731 4.22940
C 14.92940 5.87103 5.15626
O 13.74210 5.79409 4.79431
O 15.43642 6.08141 6.38469
C 14.37182 6.48323 7.34229
H 16.63142 -1.45123 4.53058
H 16.06473 -1.69919 -1.68464
H 16.52312 4.55415 -2.03145
H 16.65549 3.16531 6.28020
H 16.27959 0.37374 6.33415
H 18.61549 2.09145 5.60393
H 18.56666 0.51471 4.78794
H 18.59669 0.54051 6.52520
H 14.16594 1.45439 6.07854
H 13.99085 3.23946 5.91110
H 15.50720 2.71838 8.26412
H 14.39420 1.40171 8.15232
H 15.88184 -3.39983 4.24448
H 16.26378 -4.51465 2.97543
H 14.54541 -4.20186 3.31619
H 15.42467 -5.49241 1.15464
H 14.31642 -5.79659 -0.30342
H 13.77029 -4.91749 1.15340
H 15.81484 0.02378 -3.54705
H 17.48854 2.48283 -3.45452
H 17.78440 -0.73233 -4.37061
H 18.46933 -0.51667 -2.72125
H 18.61083 0.73342 -3.84948
H 15.63265 2.09392 -5.12072
H 15.62978 3.67593 -4.36427
H 13.92588 1.31715 -4.02519
H 13.40432 3.03383 -4.18579
H 14.03287 2.37044 -2.61126
H 16.02134 7.65871 -0.15687
H 16.58989 6.60350 -1.49084
H 17.72936 7.01156 -0.14646
H 17.01734 5.51928 4.70851
H 14.68249 7.43485 7.78455
H 14.24845 5.62496 8.02924
H 13.40322 6.74620 6.93350

