%nproc=24
%mem=175gb
#p cam-b3lyp/Def2SVP td=(nstates=5)

TDDFT excited states in gaussian

0 1
Mg 0.00000 0.00000 0.00000
C -0.21700 -2.21800 2.80100
C -1.25500 2.44200 2.02600
C -0.24500 1.85000 -2.56400
C 0.14600 -2.82400 -2.03700
N -0.61700 -0.00900 2.12600
C -0.59400 -0.90800 3.10500
C -0.93600 -0.30900 4.50200
C -1.77300 0.96400 4.03200
C -1.15500 1.16800 2.66000
C -3.26300 0.68500 3.86300
C 0.34500 0.11000 5.29900
C 0.12400 0.39700 6.78700
H 1.16800 0.03300 7.73300
N -0.18500 1.96100 -0.15200
C -0.70300 2.80000 0.77700
C -0.62000 4.15600 0.19300
C -0.18700 4.01500 -1.22500
C -0.21400 2.58300 -1.38000
C -0.88700 5.40600 0.97400
C 0.18100 5.01300 -2.27700
O 0.30300 4.69000 -3.50800
C 0.31000 6.41400 -1.83700
N -0.26500 -0.41300 -2.02900
C -0.27900 0.56900 -2.93700
C -0.19600 0.02400 -4.33200
C 0.12400 -1.53300 -4.18000
C 0.08600 -1.63200 -2.63500
C -1.45100 0.20500 -5.19700
C 1.37300 -2.07000 -4.92300
C 2.62600 -1.49000 -4.30600
N 0.15000 -2.14400 0.30300
C 0.17300 -3.13600 -0.68800
C 0.17300 -4.43800 0.00400
C 0.13300 -4.11100 1.35800
C 0.08300 -2.69500 1.50200
C 0.14900 -5.71500 -0.62300
C 0.09600 -4.62900 2.71600
O 0.20800 -5.74700 3.22100
C -0.25500 -3.42800 3.70100
C 0.71700 -3.48200 4.84800
O 1.93100 -3.25500 4.66900
O 0.03800 -3.55600 6.00300
C 0.94300 -3.58300 7.18300
H -1.85900 3.22000 2.49700
H -0.21800 2.45300 -3.47400
H 0.27600 -3.74700 -2.60500
H -1.55400 -0.94900 5.13200
H -1.58500 1.83100 4.66500
H -3.48400 -0.37700 3.96900
H -3.51100 1.02700 2.85800
H -3.85200 1.30100 4.54300
H 0.66900 1.09600 4.96600
H 1.13000 -0.63900 5.18900
H -0.84400 0.02600 7.12500
H 0.06200 1.47700 6.92100
H -1.34400 5.18600 1.93800
H -1.65100 5.96300 0.43200
H 0.00700 6.02000 1.08400
H -0.63500 6.74400 -1.40500
H 0.66500 6.97000 -2.70400
H 1.04800 6.46600 -1.03600
H 0.60800 0.50100 -4.89100
H -0.69200 -2.15600 -4.54700
H -1.26700 0.74000 -6.12900
H -2.20400 0.71400 -4.59600
H -1.96700 -0.72000 -5.45300
H 1.35600 -1.75900 -5.96700
H 1.45200 -3.15700 -4.90200
H 2.71400 -0.52200 -4.79800
H 3.48700 -2.12100 -4.52900
H 2.49500 -1.30300 -3.24000
H 0.86700 -6.33300 -0.08400
H 0.40400 -5.64200 -1.68000
H -0.89100 -5.99900 -0.46300
H -1.28300 -3.58100 4.02800
H 0.69800 -4.47800 7.75500
H 0.83300 -2.61900 7.68000
H 2.00000 -3.75400 6.97600
Mg 13.14490 1.18774 1.00499
C 12.92406 -1.03498 3.81387
C 11.88821 3.62931 3.02837
C 12.90305 3.04658 -1.55502
C 13.28486 -1.63191 -1.03846
N 12.52565 1.17644 3.12835
C 12.54464 0.29026 4.11256
C 12.21099 0.87513 5.51119
C 11.36633 2.15724 5.04043
C 11.98403 2.36305 3.65885
C 9.88467 1.86983 4.86318
C 13.49719 1.29482 6.30590
C 13.26955 1.58418 7.79123
H 14.31916 1.22205 8.73973
N 12.96210 3.15868 0.86164
C 12.45097 3.99791 1.78669
C 12.52074 5.34200 1.19279
C 12.96234 5.20735 -0.22198
C 12.93908 3.76588 -0.36933
C 12.26192 6.59380 1.97983
C 13.33070 6.21051 -1.27278
O 13.45495 5.88017 -2.50496
C 13.45011 7.60795 -0.83188
N 12.88709 0.77673 -1.01663
C 12.86734 1.76667 -1.92633
C 12.94853 1.21836 -3.33102
C 13.27198 -0.33914 -3.16623
C 13.23179 -0.44435 -1.62587
C 11.69278 1.38946 -4.18554
C 14.52229 -0.88100 -3.91174
C 15.77799 -0.29666 -3.30581
N 13.29849 -0.94607 1.30718
C 13.31561 -1.94924 0.31348
C 13.31534 -3.25204 1.01000
C 13.27451 -2.91394 2.37107
C 13.23060 -1.50057 2.51233
C 13.30164 -4.53019 0.38369
C 13.24784 -3.43152 3.72018
O 13.35242 -4.54905 4.22409
C 12.89206 -2.24091 4.71127
C 13.86317 -2.28608 5.85906
O 15.07354 -2.07035 5.67178
O 13.17705 -2.36035 7.01409
C 14.09665 -2.39642 8.18236
H 11.29006 4.40413 3.50874
H 12.93085 3.64343 -2.46961
H 13.42660 -2.55632 -1.60242
H 11.59929 0.23608 6.13666
H 11.56294 3.01549 5.67770
H 9.66273 0.81834 4.96926
H 9.63615 2.21029 3.86650
H 9.29635 2.48726 5.54801
H 13.81855 2.28845 5.96801
H 14.27025 0.55944 6.19535
H 12.29541 1.21834 8.13787
H 13.21391 2.66670 7.92933
H 11.79747 6.37118 2.94840
H 11.49845 7.16102 1.43647
H 13.15348 7.21513 2.08817
H 12.50707 7.93150 -0.39777
H 13.80678 8.15996 -1.70363
H 14.19852 7.66010 -0.03327
H 13.75317 1.68784 -3.88351
H 12.45298 -0.96774 -3.54562
H 11.87862 1.93451 -5.13024
H 10.94393 1.89880 -3.59365
H 11.18600 0.46359 -4.45226
H 14.50618 -0.56479 -4.95764
H 14.59460 -1.96345 -3.90364
H 15.86022 0.67651 -3.79903
H 16.63832 -0.92515 -3.52688
H 15.64845 -0.11258 -2.23297
H 14.01251 -5.14636 0.91801
H 13.55197 -4.45801 -0.67267
H 12.25704 -4.81261 0.53963
H 11.86228 -2.38523 5.04036
H 13.84806 -3.29399 8.75704
H 13.97183 -1.42202 8.69100
H 15.15040 -2.55612 7.98600
158

Mg 0.00000 0.00000 0.00000
C -0.21700 -2.21800 2.80100
C -1.25500 2.44200 2.02600
C -0.24500 1.85000 -2.56400
C 0.14600 -2.82400 -2.03700
N -0.61700 -0.00900 2.12600
C -0.59400 -0.90800 3.10500
C -0.93600 -0.30900 4.50200
C -1.77300 0.96400 4.03200
C -1.15500 1.16800 2.66000
C -3.26300 0.68500 3.86300
C 0.34500 0.11000 5.29900
C 0.12400 0.39700 6.78700
H 1.16800 0.03300 7.73300
N -0.18500 1.96100 -0.15200
C -0.70300 2.80000 0.77700
C -0.62000 4.15600 0.19300
C -0.18700 4.01500 -1.22500
C -0.21400 2.58300 -1.38000
C -0.88700 5.40600 0.97400
C 0.18100 5.01300 -2.27700
O 0.30300 4.69000 -3.50800
C 0.31000 6.41400 -1.83700
N -0.26500 -0.41300 -2.02900
C -0.27900 0.56900 -2.93700
C -0.19600 0.02400 -4.33200
C 0.12400 -1.53300 -4.18000
C 0.08600 -1.63200 -2.63500
C -1.45100 0.20500 -5.19700
C 1.37300 -2.07000 -4.92300
C 2.62600 -1.49000 -4.30600
N 0.15000 -2.14400 0.30300
C 0.17300 -3.13600 -0.68800
C 0.17300 -4.43800 0.00400
C 0.13300 -4.11100 1.35800
C 0.08300 -2.69500 1.50200
C 0.14900 -5.71500 -0.62300
C 0.09600 -4.62900 2.71600
O 0.20800 -5.74700 3.22100
C -0.25500 -3.42800 3.70100
C 0.71700 -3.48200 4.84800
O 1.93100 -3.25500 4.66900
O 0.03800 -3.55600 6.00300
C 0.94300 -3.58300 7.18300
H -1.85900 3.22000 2.49700
H -0.21800 2.45300 -3.47400
H 0.27600 -3.74700 -2.60500
H -1.55400 -0.94900 5.13200
H -1.58500 1.83100 4.66500
H -3.48400 -0.37700 3.96900
H -3.51100 1.02700 2.85800
H -3.85200 1.30100 4.54300
H 0.66900 1.09600 4.96600
H 1.13000 -0.63900 5.18900
H -0.84400 0.02600 7.12500
H 0.06200 1.47700 6.92100
H -1.34400 5.18600 1.93800
H -1.65100 5.96300 0.43200
H 0.00700 6.02000 1.08400
H -0.63500 6.74400 -1.40500
H 0.66500 6.97000 -2.70400
H 1.04800 6.46600 -1.03600
H 0.60800 0.50100 -4.89100
H -0.69200 -2.15600 -4.54700
H -1.26700 0.74000 -6.12900
H -2.20400 0.71400 -4.59600
H -1.96700 -0.72000 -5.45300
H 1.35600 -1.75900 -5.96700
H 1.45200 -3.15700 -4.90200
H 2.71400 -0.52200 -4.79800
H 3.48700 -2.12100 -4.52900
H 2.49500 -1.30300 -3.24000
H 0.86700 -6.33300 -0.08400
H 0.40400 -5.64200 -1.68000
H -0.89100 -5.99900 -0.46300
H -1.28300 -3.58100 4.02800
H 0.69800 -4.47800 7.75500
H 0.83300 -2.61900 7.68000
H 2.00000 -3.75400 6.97600
Mg 13.14491 1.18733 1.00525
C 12.95067 -1.20894 3.66969
C 11.88879 3.49036 3.18534
C 12.87960 3.20247 -1.43119
C 13.28596 -1.49731 -1.21252
N 12.53809 1.03926 3.12707
C 12.56689 0.09296 4.05337
C 12.23870 0.58693 5.48789
C 11.38542 1.89193 5.10351
C 11.99411 2.18740 3.73426
C 9.90409 1.60890 4.91669
C 13.52756 0.96212 6.30035
C 13.30724 1.15623 7.80220
H 14.36401 0.74030 8.72019
N 12.95221 3.16245 0.98737
C 12.44261 3.93921 1.96627
C 12.50273 5.31837 1.45785
C 12.93670 5.27527 0.03499
C 12.91922 3.84585 -0.20275
C 12.24273 6.51682 2.32361
C 13.29431 6.34443 -0.95254
O 13.41291 6.09296 -2.20375
C 13.40985 7.71191 -0.42514
N 12.87723 0.90317 -1.03679
C 12.84763 1.94832 -1.88219
C 12.92317 1.48997 -3.31906
C 13.25474 -0.07319 -3.25451
C 13.22400 -0.27539 -1.72364
C 11.66169 1.70831 -4.15416
C 14.50317 -0.56081 -4.03957
C 15.75967 -0.00957 -3.40497
N 13.31009 -0.96049 1.17156
C 13.32604 -1.89899 0.11655
C 13.33583 -3.24305 0.72960
C 13.30136 -2.99154 2.10947
C 13.25177 -1.59011 2.33973
C 13.32437 -4.47928 0.02409
C 13.28493 -3.59318 3.42342
O 13.39759 -4.73970 3.85533
C 12.92945 -2.46913 4.48950
C 13.90742 -2.58167 5.62678
O 15.11567 -2.34857 5.44679
O 13.22839 -2.73194 6.77861
C 14.15493 -2.83694 7.93719
H 11.28988 4.23041 3.71687
H 12.89933 3.85586 -2.30650
H 13.42867 -2.38365 -1.83438
H 11.63360 -0.09327 6.07523
H 11.58178 2.70931 5.79249
H 9.68762 0.55173 4.95754
H 9.64821 2.01022 3.94483
H 9.31693 2.17905 5.64229
H 13.84237 1.97664 6.02397
H 14.30334 0.23901 6.13943
H 12.33683 0.76446 8.13047
H 13.24742 2.22762 8.00853
H 11.78496 6.23134 3.27878
H 11.47351 7.11333 1.82129
H 13.13204 7.13451 2.46596
H 12.46787 8.00279 0.03369
H 13.75889 8.31948 -1.26233
H 14.16265 7.71738 0.37103
H 13.72240 1.99730 -3.84531
H 12.43645 -0.68071 -3.66823
H 11.83951 2.31269 -5.06366
H 10.91396 2.17564 -3.52723
H 11.15763 0.79857 -4.47588
H 14.47952 -0.17945 -5.06337
H 14.58051 -1.64125 -4.10008
H 15.83455 0.99313 -3.83635
H 16.62159 -0.61861 -3.66994
H 15.63553 0.10594 -2.32197
H 14.04117 -5.12434 0.51460
H 13.56821 -4.33947 -1.02699
H 12.28201 -4.77614 0.16769
H 11.90228 -2.63900 4.81452
H 13.91383 -3.77014 8.45555
H 14.02859 -1.89714 8.50689
H 15.20824 -2.97873 7.72535
158

Mg 0.00000 0.00000 0.00000
C -0.21700 -2.21800 2.80100
C -1.25500 2.44200 2.02600
C -0.24500 1.85000 -2.56400
C 0.14600 -2.82400 -2.03700
N -0.61700 -0.00900 2.12600
C -0.59400 -0.90800 3.10500
C -0.93600 -0.30900 4.50200
C -1.77300 0.96400 4.03200
C -1.15500 1.16800 2.66000
C -3.26300 0.68500 3.86300
C 0.34500 0.11000 5.29900
C 0.12400 0.39700 6.78700
H 1.16800 0.03300 7.73300
N -0.18500 1.96100 -0.15200
C -0.70300 2.80000 0.77700
C -0.62000 4.15600 0.19300
C -0.18700 4.01500 -1.22500
C -0.21400 2.58300 -1.38000
C -0.88700 5.40600 0.97400
C 0.18100 5.01300 -2.27700
O 0.30300 4.69000 -3.50800
C 0.31000 6.41400 -1.83700
N -0.26500 -0.41300 -2.02900
C -0.27900 0.56900 -2.93700
C -0.19600 0.02400 -4.33200
C 0.12400 -1.53300 -4.18000
C 0.08600 -1.63200 -2.63500
C -1.45100 0.20500 -5.19700
C 1.37300 -2.07000 -4.92300
C 2.62600 -1.49000 -4.30600
N 0.15000 -2.14400 0.30300
C 0.17300 -3.13600 -0.68800
C 0.17300 -4.43800 0.00400
C 0.13300 -4.11100 1.35800
C 0.08300 -2.69500 1.50200
C 0.14900 -5.71500 -0.62300
C 0.09600 -4.62900 2.71600
O 0.20800 -5.74700 3.22100
C -0.25500 -3.42800 3.70100
C 0.71700 -3.48200 4.84800
O 1.93100 -3.25500 4.66900
O 0.03800 -3.55600 6.00300
C 0.94300 -3.58300 7.18300
H -1.85900 3.22000 2.49700
H -0.21800 2.45300 -3.47400
H 0.27600 -3.74700 -2.60500
H -1.55400 -0.94900 5.13200
H -1.58500 1.83100 4.66500
H -3.48400 -0.37700 3.96900
H -3.51100 1.02700 2.85800
H -3.85200 1.30100 4.54300
H 0.66900 1.09600 4.96600
H 1.13000 -0.63900 5.18900
H -0.84400 0.02600 7.12500
H 0.06200 1.47700 6.92100
H -1.34400 5.18600 1.93800
H -1.65100 5.96300 0.43200
H 0.00700 6.02000 1.08400
H -0.63500 6.74400 -1.40500
H 0.66500 6.97000 -2.70400
H 1.04800 6.46600 -1.03600
H 0.60800 0.50100 -4.89100
H -0.69200 -2.15600 -4.54700
H -1.26700 0.74000 -6.12900
H -2.20400 0.71400 -4.59600
H -1.96700 -0.72000 -5.45300
H 1.35600 -1.75900 -5.96700
H 1.45200 -3.15700 -4.90200
H 2.71400 -0.52200 -4.79800
H 3.48700 -2.12100 -4.52900
H 2.49500 -1.30300 -3.24000
H 0.86700 -6.33300 -0.08400
H 0.40400 -5.64200 -1.68000
H -0.89100 -5.99900 -0.46300
H -1.28300 -3.58100 4.02800
H 0.69800 -4.47800 7.75500
H 0.83300 -2.61900 7.68000
H 2.00000 -3.75400 6.97600
Mg 13.14493 1.18690 1.00549
C 12.97724 -1.37334 3.51470
C 11.89093 3.34181 3.33324
C 12.85617 3.35013 -1.29765
C 13.28543 -1.35201 -1.37776
N 12.55117 0.90249 3.11708
C 12.58972 -0.10011 3.98175
C 12.26761 0.30091 5.44633
C 11.40610 1.62327 5.14965
C 12.00544 2.00740 3.79839
C 9.92503 1.34522 4.95354
C 13.55943 0.63058 6.27369
C 13.34697 0.72863 7.78597
H 14.41097 0.26097 8.67009
N 12.94303 3.15825 1.11314
C 12.43557 3.86928 2.14183
C 12.48637 5.27800 1.72099
C 12.91225 5.32675 0.29586
C 12.89997 3.91506 -0.03136
C 12.22590 6.41824 2.66195
C 13.25918 6.45773 -0.62430
O 13.37164 6.28615 -1.88951
C 13.37148 7.78984 -0.01244
N 12.86668 1.03058 -1.04889
C 12.82734 2.12673 -1.82659
C 12.89662 1.76016 -3.28988
C 13.23577 0.19770 -3.32577
C 13.21487 -0.10066 -1.81054
C 11.62931 2.02439 -4.10259
C 14.48184 -0.23331 -4.14687
C 15.73946 0.28311 -3.48575
N 13.32096 -0.96628 1.03523
C 13.33510 -1.83639 -0.07688
C 13.35465 -3.21633 0.45021
C 13.32706 -3.05239 1.84335
C 13.27235 -1.66850 2.16172
C 13.34477 -4.40571 -0.33171
C 13.32105 -3.73566 3.11686
O 13.44150 -4.90652 3.47505
C 12.96660 -2.68275 4.25358
C 13.95169 -2.86183 5.37610
O 15.15778 -2.61186 5.20448
O 13.28007 -3.08770 6.51990
C 14.21381 -3.26086 7.66444
H 11.29173 4.04393 3.91363
H 12.86779 4.05744 -2.13015
H 13.42860 -2.19672 -2.05500
H 11.66908 -0.41792 5.99297
H 11.60270 2.39661 5.88766
H 9.71367 0.28652 4.92890
H 9.66165 1.80567 4.01032
H 9.33948 1.86563 5.71686
H 13.86795 1.66204 6.06003
H 14.33759 -0.07710 6.06324
H 12.38030 0.31215 8.09426
H 13.28342 1.78459 8.05972
H 11.77502 6.07091 3.59975
H 11.45103 7.04138 2.20246
H 13.11317 7.03015 2.83802
H 12.43086 8.04657 0.46900
H 13.71284 8.45066 -0.81161
H 14.12887 7.74889 0.77832
H 13.69044 2.30358 -3.78752
H 12.41789 -0.38661 -3.77242
H 11.79905 2.68572 -4.97317
H 10.88310 2.44760 -3.44335
H 11.12759 1.13423 -4.47820
H 14.45047 0.21165 -5.14446
H 14.56380 -1.30740 -4.27576
H 15.80720 1.31134 -3.85350
H 16.60261 -0.30376 -3.79332
H 15.62110 0.32956 -2.39695
H 14.06738 -5.07681 0.11322
H 13.58185 -4.19879 -1.37322
H 12.30464 -4.71620 -0.20135
H 11.94213 -2.87784 4.57292
H 13.98003 -4.22604 8.12429
H 14.08646 -2.35944 8.29290
H 15.26652 -3.38379 7.43827
158

Mg 0.00000 0.00000 0.00000
C -0.21700 -2.21800 2.80100
C -1.25500 2.44200 2.02600
C -0.24500 1.85000 -2.56400
C 0.14600 -2.82400 -2.03700
N -0.61700 -0.00900 2.12600
C -0.59400 -0.90800 3.10500
C -0.93600 -0.30900 4.50200
C -1.77300 0.96400 4.03200
C -1.15500 1.16800 2.66000
C -3.26300 0.68500 3.86300
C 0.34500 0.11000 5.29900
C 0.12400 0.39700 6.78700
H 1.16800 0.03300 7.73300
N -0.18500 1.96100 -0.15200
C -0.70300 2.80000 0.77700
C -0.62000 4.15600 0.19300
C -0.18700 4.01500 -1.22500
C -0.21400 2.58300 -1.38000
C -0.88700 5.40600 0.97400
C 0.18100 5.01300 -2.27700
O 0.30300 4.69000 -3.50800
C 0.31000 6.41400 -1.83700
N -0.26500 -0.41300 -2.02900
C -0.27900 0.56900 -2.93700
C -0.19600 0.02400 -4.33200
C 0.12400 -1.53300 -4.18000
C 0.08600 -1.63200 -2.63500
C -1.45100 0.20500 -5.19700
C 1.37300 -2.07000 -4.92300
C 2.62600 -1.49000 -4.30600
N 0.15000 -2.14400 0.30300
C 0.17300 -3.13600 -0.68800
C 0.17300 -4.43800 0.00400
C 0.13300 -4.11100 1.35800
C 0.08300 -2.69500 1.50200
C 0.14900 -5.71500 -0.62300
C 0.09600 -4.62900 2.71600
O 0.20800 -5.74700 3.22100
C -0.25500 -3.42800 3.70100
C 0.71700 -3.48200 4.84800
O 1.93100 -3.25500 4.66900
O 0.03800 -3.55600 6.00300
C 0.94300 -3.58300 7.18300
H -1.85900 3.22000 2.49700
H -0.21800 2.45300 -3.47400
H 0.27600 -3.74700 -2.60500
H -1.55400 -0.94900 5.13200
H -1.58500 1.83100 4.66500
H -3.48400 -0.37700 3.96900
H -3.51100 1.02700 2.85800
H -3.85200 1.30100 4.54300
H 0.66900 1.09600 4.96600
H 1.13000 -0.63900 5.18900
H -0.84400 0.02600 7.12500
H 0.06200 1.47700 6.92100
H -1.34400 5.18600 1.93800
H -1.65100 5.96300 0.43200
H 0.00700 6.02000 1.08400
H -0.63500 6.74400 -1.40500
H 0.66500 6.97000 -2.70400
H 1.04800 6.46600 -1.03600
H 0.60800 0.50100 -4.89100
H -0.69200 -2.15600 -4.54700
H -1.26700 0.74000 -6.12900
H -2.20400 0.71400 -4.59600
H -1.96700 -0.72000 -5.45300
H 1.35600 -1.75900 -5.96700
H 1.45200 -3.15700 -4.90200
H 2.71400 -0.52200 -4.79800
H 3.48700 -2.12100 -4.52900
H 2.49500 -1.30300 -3.24000
H 0.86700 -6.33300 -0.08400
H 0.40400 -5.64200 -1.68000
H -0.89100 -5.99900 -0.46300
H -1.28300 -3.58100 4.02800
H 0.69800 -4.47800 7.75500
H 0.83300 -2.61900 7.68000
H 2.00000 -3.75400 6.97600
Mg 13.14496 1.18645 1.00569
C 13.00367 -1.52752 3.34950
C 11.89461 3.18424 3.47147
C 12.83283 3.48898 -1.15495
C 13.28327 -1.19661 -1.53352
N 12.56481 0.76669 3.09841
C 12.61301 -0.28817 3.89798
C 12.29759 0.01822 5.38667
C 11.42829 1.35235 5.17865
C 12.01798 1.82378 3.85098
C 9.94740 1.07985 4.97359
C 13.59268 0.30154 6.22601
C 13.38857 0.30311 7.74261
H 14.45984 -0.21402 8.58963
N 12.93461 3.14608 1.23845
C 12.42987 3.78840 2.31267
C 12.47174 5.22105 1.98114
C 12.88908 5.36157 0.55959
C 12.88140 3.97324 0.14415
C 12.21150 6.29847 2.99350
C 13.22543 6.54996 -0.28939
O 13.33132 6.45896 -1.56349
C 13.33516 7.84144 0.40455
N 12.85548 1.15844 -1.05289
C 12.80656 2.30119 -1.75975
C 12.86901 2.02784 -3.24359
C 13.21513 0.47244 -3.37972
C 13.20443 0.07916 -1.88620
C 11.59579 2.33643 -4.03103
C 14.45837 0.10018 -4.23321
C 15.71743 0.58018 -3.54781
N 13.33107 -0.96343 0.89875
C 13.34274 -1.76169 -0.26603
C 13.37171 -3.17197 0.17295
C 13.35148 -3.09623 1.57379
C 13.29225 -1.73543 1.97901
C 13.36277 -4.30978 -0.68228
C 13.35603 -3.85836 2.80173
O 13.48396 -5.04884 3.08478
C 13.00336 -2.88090 4.00447
C 13.99578 -3.12542 5.10803
O 15.19970 -2.85916 4.94584
O 13.33188 -3.42621 6.23902
C 14.27306 -3.66646 7.36520
H 11.29557 3.84545 4.09825
H 12.83634 4.24735 -1.94129
H 13.42639 -1.99626 -2.26341
H 11.70557 -0.73658 5.89023
H 11.62562 2.07864 5.96282
H 9.74078 0.02376 4.88346
H 9.67641 1.59747 4.06272
H 9.36391 1.54824 5.77140
H 13.89519 1.34593 6.07606
H 14.37285 -0.38762 5.96711
H 12.42564 -0.13676 8.02939
H 13.32175 1.33940 8.08269
H 11.76769 5.89054 3.91003
H 11.43110 6.94546 2.57847
H 13.09695 6.90247 3.20287
H 12.39619 8.06267 0.90639
H 13.66882 8.55295 -0.35327
H 14.09732 7.75453 1.18697
H 13.65740 2.60545 -3.71038
H 12.39736 -0.08663 -3.85777
H 11.75741 3.05210 -4.85914
H 10.85148 2.71357 -3.34232
H 11.09599 1.46921 -4.45920
H 14.41915 0.60692 -5.20059
H 14.54453 -0.96323 -4.42996
H 15.77829 1.62985 -3.85042
H 16.58147 0.01814 -3.89651
H 15.60519 0.55739 -2.45761
H 14.09104 -5.00398 -0.28451
H 13.59282 -4.03651 -1.70998
H 12.32486 -4.63302 -0.56599
H 11.98168 -3.10080 4.31654
H 14.04641 -4.65983 7.76461
H 14.14522 -2.80705 8.04990
H 15.32498 -3.76968 7.12592
158

Mg 0.00000 0.00000 0.00000
C -0.21700 -2.21800 2.80100
C -1.25500 2.44200 2.02600
C -0.24500 1.85000 -2.56400
C 0.14600 -2.82400 -2.03700
N -0.61700 -0.00900 2.12600
C -0.59400 -0.90800 3.10500
C -0.93600 -0.30900 4.50200
C -1.77300 0.96400 4.03200
C -1.15500 1.16800 2.66000
C -3.26300 0.68500 3.86300
C 0.34500 0.11000 5.29900
C 0.12400 0.39700 6.78700
H 1.16800 0.03300 7.73300
N -0.18500 1.96100 -0.15200
C -0.70300 2.80000 0.77700
C -0.62000 4.15600 0.19300
C -0.18700 4.01500 -1.22500
C -0.21400 2.58300 -1.38000
C -0.88700 5.40600 0.97400
C 0.18100 5.01300 -2.27700
O 0.30300 4.69000 -3.50800
C 0.31000 6.41400 -1.83700
N -0.26500 -0.41300 -2.02900
C -0.27900 0.56900 -2.93700
C -0.19600 0.02400 -4.33200
C 0.12400 -1.53300 -4.18000
C 0.08600 -1.63200 -2.63500
C -1.45100 0.20500 -5.19700
C 1.37300 -2.07000 -4.92300
C 2.62600 -1.49000 -4.30600
N 0.15000 -2.14400 0.30300
C 0.17300 -3.13600 -0.68800
C 0.17300 -4.43800 0.00400
C 0.13300 -4.11100 1.35800
C 0.08300 -2.69500 1.50200
C 0.14900 -5.71500 -0.62300
C 0.09600 -4.62900 2.71600
O 0.20800 -5.74700 3.22100
C -0.25500 -3.42800 3.70100
C 0.71700 -3.48200 4.84800
O 1.93100 -3.25500 4.66900
O 0.03800 -3.55600 6.00300
C 0.94300 -3.58300 7.18300
H -1.85900 3.22000 2.49700
H -0.21800 2.45300 -3.47400
H 0.27600 -3.74700 -2.60500
H -1.55400 -0.94900 5.13200
H -1.58500 1.83100 4.66500
H -3.48400 -0.37700 3.96900
H -3.51100 1.02700 2.85800
H -3.85200 1.30100 4.54300
H 0.66900 1.09600 4.96600
H 1.13000 -0.63900 5.18900
H -0.84400 0.02600 7.12500
H 0.06200 1.47700 6.92100
H -1.34400 5.18600 1.93800
H -1.65100 5.96300 0.43200
H 0.00700 6.02000 1.08400
H -0.63500 6.74400 -1.40500
H 0.66500 6.97000 -2.70400
H 1.04800 6.46600 -1.03600
H 0.60800 0.50100 -4.89100
H -0.69200 -2.15600 -4.54700
H -1.26700 0.74000 -6.12900
H -2.20400 0.71400 -4.59600
H -1.96700 -0.72000 -5.45300
H 1.35600 -1.75900 -5.96700
H 1.45200 -3.15700 -4.90200
H 2.71400 -0.52200 -4.79800
H 3.48700 -2.12100 -4.52900
H 2.49500 -1.30300 -3.24000
H 0.86700 -6.33300 -0.08400
H 0.40400 -5.64200 -1.68000
H -0.89100 -5.99900 -0.46300
H -1.28300 -3.58100 4.02800
H 0.69800 -4.47800 7.75500
H 0.83300 -2.61900 7.68000
H 2.00000 -3.75400 6.97600
Mg 13.14499 1.18600 1.00587
C 13.02985 -1.67086 3.17478
C 11.89983 3.01831 3.59948
C 12.80968 3.61844 -1.00366
C 13.27949 -1.03171 -1.67916
N 12.57897 0.63240 3.07116
C 12.63668 -0.47046 3.80240
C 12.32853 -0.26001 5.30915
C 11.45189 1.08025 5.19040
C 12.03167 1.63728 3.89184
C 9.97110 0.81386 4.97676
C 13.62716 -0.02368 6.15751
C 13.43188 -0.11863 7.67231
H 14.51044 -0.68275 8.47913
N 12.92697 3.12601 1.36278
C 12.42554 3.69689 2.47810
C 12.45888 5.14777 2.23727
C 12.86729 5.37959 0.82512
C 12.86358 4.02017 0.32308
C 12.19958 6.15799 3.31692
C 13.19322 6.62075 0.05085
O 13.29210 6.61069 -1.22702
C 13.30103 7.86649 0.82416
N 12.84366 1.28624 -1.04876
C 12.78536 2.47098 -1.68194
C 12.84043 2.29193 -3.18037
C 13.19291 0.74993 -3.41614
C 13.19272 0.26332 -1.95032
C 11.56124 2.64317 -3.93977
C 14.43287 0.43833 -4.29823
C 15.69367 0.88046 -3.59092
N 13.34038 -0.95193 0.76267
C 13.34894 -1.67519 -0.45014
C 13.38696 -3.11015 -0.10104
C 13.37454 -3.12288 1.30187
C 13.31140 -1.79061 1.79235
C 13.37828 -4.19188 -1.02619
C 13.38975 -3.96080 2.47932
O 13.52480 -5.16609 2.68609
C 13.03959 -3.06278 3.74318
C 14.03953 -3.37139 4.82364
O 15.24124 -3.08947 4.67191
O 13.38361 -3.74609 5.93708
C 14.33243 -4.05212 7.04067
H 11.30141 3.63575 4.26996
H 12.80512 4.42484 -1.74067
H 13.42204 -1.78310 -2.45876
H 11.74293 -1.04794 5.76742
H 11.65044 1.75668 6.01767
H 9.76883 -0.23547 4.82142
H 9.69244 1.38646 4.10182
H 9.39012 1.22817 5.80570
H 13.92398 1.02957 6.07200
H 14.40897 -0.69128 5.85140
H 12.47267 -0.58046 7.93611
H 13.36227 0.89384 8.07736
H 11.76299 5.69095 4.20836
H 11.41381 6.82595 2.94778
H 13.08344 6.75200 3.55903
H 12.36399 8.05102 1.34412
H 13.62699 8.62597 0.11084
H 14.06812 7.73427 1.59533
H 13.62343 2.90170 -3.61419
H 12.37496 0.21802 -3.92393
H 11.71474 3.41037 -4.72202
H 10.81923 2.97250 -3.22457
H 11.06296 1.80217 -4.41896
H 14.38568 1.00479 -5.23154
H 14.52278 -0.61014 -4.56206
H 15.74794 1.94739 -3.82713
H 16.55825 0.34579 -3.97909
H 15.58789 0.78850 -2.50372
H 14.11204 -4.90613 -0.67698
H 13.60108 -3.85329 -2.03589
H 12.34256 -4.52695 -0.92478
H 12.02076 -3.30697 4.04640
H 14.11269 -5.06978 7.37795
H 14.20462 -3.23817 7.77885
H 15.38341 -4.13484 6.78957
158

Mg 0.00000 0.00000 0.00000
C -0.21700 -2.21800 2.80100
C -1.25500 2.44200 2.02600
C -0.24500 1.85000 -2.56400
C 0.14600 -2.82400 -2.03700
N -0.61700 -0.00900 2.12600
C -0.59400 -0.90800 3.10500
C -0.93600 -0.30900 4.50200
C -1.77300 0.96400 4.03200
C -1.15500 1.16800 2.66000
C -3.26300 0.68500 3.86300
C 0.34500 0.11000 5.29900
C 0.12400 0.39700 6.78700
H 1.16800 0.03300 7.73300
N -0.18500 1.96100 -0.15200
C -0.70300 2.80000 0.77700
C -0.62000 4.15600 0.19300
C -0.18700 4.01500 -1.22500
C -0.21400 2.58300 -1.38000
C -0.88700 5.40600 0.97400
C 0.18100 5.01300 -2.27700
O 0.30300 4.69000 -3.50800
C 0.31000 6.41400 -1.83700
N -0.26500 -0.41300 -2.02900
C -0.27900 0.56900 -2.93700
C -0.19600 0.02400 -4.33200
C 0.12400 -1.53300 -4.18000
C 0.08600 -1.63200 -2.63500
C -1.45100 0.20500 -5.19700
C 1.37300 -2.07000 -4.92300
C 2.62600 -1.49000 -4.30600
N 0.15000 -2.14400 0.30300
C 0.17300 -3.13600 -0.68800
C 0.17300 -4.43800 0.00400
C 0.13300 -4.11100 1.35800
C 0.08300 -2.69500 1.50200
C 0.14900 -5.71500 -0.62300
C 0.09600 -4.62900 2.71600
O 0.20800 -5.74700 3.22100
C -0.25500 -3.42800 3.70100
C 0.71700 -3.48200 4.84800
O 1.93100 -3.25500 4.66900
O 0.03800 -3.55600 6.00300
C 0.94300 -3.58300 7.18300
H -1.85900 3.22000 2.49700
H -0.21800 2.45300 -3.47400
H 0.27600 -3.74700 -2.60500
H -1.55400 -0.94900 5.13200
H -1.58500 1.83100 4.66500
H -3.48400 -0.37700 3.96900
H -3.51100 1.02700 2.85800
H -3.85200 1.30100 4.54300
H 0.66900 1.09600 4.96600
H 1.13000 -0.63900 5.18900
H -0.84400 0.02600 7.12500
H 0.06200 1.47700 6.92100
H -1.34400 5.18600 1.93800
H -1.65100 5.96300 0.43200
H 0.00700 6.02000 1.08400
H -0.63500 6.74400 -1.40500
H 0.66500 6.97000 -2.70400
H 1.04800 6.46600 -1.03600
H 0.60800 0.50100 -4.89100
H -0.69200 -2.15600 -4.54700
H -1.26700 0.74000 -6.12900
H -2.20400 0.71400 -4.59600
H -1.96700 -0.72000 -5.45300
H 1.35600 -1.75900 -5.96700
H 1.45200 -3.15700 -4.90200
H 2.71400 -0.52200 -4.79800
H 3.48700 -2.12100 -4.52900
H 2.49500 -1.30300 -3.24000
H 0.86700 -6.33300 -0.08400
H 0.40400 -5.64200 -1.68000
H -0.89100 -5.99900 -0.46300
H -1.28300 -3.58100 4.02800
H 0.69800 -4.47800 7.75500
H 0.83300 -2.61900 7.68000
H 2.00000 -3.75400 6.97600
Mg 13.14502 1.18553 1.00602
C 13.05567 -1.80278 2.99124
C 11.90655 2.84467 3.71675
C 12.78682 3.73800 -0.84439
C 13.27410 -0.85799 -1.81410
N 12.59359 0.50017 3.03542
C 12.66064 -0.64625 3.69539
C 12.36029 -0.53263 5.21409
C 11.47682 0.80807 5.18485
C 12.04645 1.44864 3.92079
C 9.99605 0.54832 4.96303
C 13.66274 -0.34376 6.06848
C 13.47672 -0.53489 7.57533
H 14.56254 -1.14333 8.33905
N 12.92015 3.09811 1.48564
C 12.42260 3.59512 2.63747
C 12.44785 5.05844 2.48834
C 12.84696 5.38076 1.09137
C 12.84659 4.05564 0.50471
C 12.19019 5.99736 3.63090
C 13.16265 6.66981 0.39504
O 13.25414 6.74074 -0.88145
C 13.26923 7.86490 1.24469
N 12.83127 1.41347 -1.03652
C 12.76384 2.63542 -1.59347
C 12.81101 2.55137 -3.10049
C 13.16921 1.02905 -3.43487
C 13.17979 0.45110 -2.00265
C 11.52581 2.94339 -3.82917
C 14.40543 0.77978 -4.34168
C 15.66828 1.18274 -3.61488
N 13.34883 -0.93184 0.62753
C 13.35367 -1.57724 -0.62846
C 13.40033 -3.03113 -0.37068
C 13.39613 -3.13225 1.02869
C 13.32972 -1.83384 1.60247
C 13.39124 -4.05248 -1.36208
C 13.42205 -4.04256 2.15090
O 13.56386 -5.25780 2.28058
C 13.07513 -3.22767 3.47075
C 14.08275 -3.59874 4.52408
O 15.28225 -3.30186 4.38379
O 13.43506 -4.04607 5.61531
C 14.39169 -4.41627 6.69217
H 11.30921 3.41568 4.42809
H 12.77426 4.58918 -1.52909
H 13.41556 -1.55807 -2.64026
H 11.78101 -1.35076 5.62504
H 11.67706 1.43204 6.05199
H 9.79771 -0.49014 4.74301
H 9.70966 1.17349 4.12746
H 9.41801 0.90672 5.81962
H 13.95420 0.71424 6.04785
H 14.44582 -0.98687 5.71660
H 12.52120 -1.01716 7.81480
H 13.40480 0.44971 8.04375
H 11.76096 5.47295 4.49355
H 11.39921 6.68333 3.30893
H 13.07270 6.57932 3.90508
H 12.33439 8.01166 1.78041
H 13.58753 8.66940 0.57885
H 14.04140 7.68819 2.00175
H 13.58865 3.19113 -3.49934
H 12.35077 0.52611 -3.97065
H 11.67122 3.75908 -4.56237
H 10.78647 3.22333 -3.09056
H 11.02863 2.13176 -4.35764
H 14.35020 1.40364 -5.23717
H 14.49863 -0.24954 -4.67153
H 15.71625 2.26268 -3.78370
H 16.53303 0.67787 -4.04074
H 15.56925 1.02197 -2.53507
H 14.13031 -4.78365 -1.06262
H 13.60660 -3.64987 -2.34966
H 12.35769 -4.39841 -1.27626
H 12.05922 -3.49552 3.76361
H 14.17860 -5.45423 6.96588
H 14.26443 -3.65107 7.48086
H 15.44156 -4.47780 6.43056
158

Mg 0.00000 0.00000 0.00000
C -0.21700 -2.21800 2.80100
C -1.25500 2.44200 2.02600
C -0.24500 1.85000 -2.56400
C 0.14600 -2.82400 -2.03700
N -0.61700 -0.00900 2.12600
C -0.59400 -0.90800 3.10500
C -0.93600 -0.30900 4.50200
C -1.77300 0.96400 4.03200
C -1.15500 1.16800 2.66000
C -3.26300 0.68500 3.86300
C 0.34500 0.11000 5.29900
C 0.12400 0.39700 6.78700
H 1.16800 0.03300 7.73300
N -0.18500 1.96100 -0.15200
C -0.70300 2.80000 0.77700
C -0.62000 4.15600 0.19300
C -0.18700 4.01500 -1.22500
C -0.21400 2.58300 -1.38000
C -0.88700 5.40600 0.97400
C 0.18100 5.01300 -2.27700
O 0.30300 4.69000 -3.50800
C 0.31000 6.41400 -1.83700
N -0.26500 -0.41300 -2.02900
C -0.27900 0.56900 -2.93700
C -0.19600 0.02400 -4.33200
C 0.12400 -1.53300 -4.18000
C 0.08600 -1.63200 -2.63500
C -1.45100 0.20500 -5.19700
C 1.37300 -2.07000 -4.92300
C 2.62600 -1.49000 -4.30600
N 0.15000 -2.14400 0.30300
C 0.17300 -3.13600 -0.68800
C 0.17300 -4.43800 0.00400
C 0.13300 -4.11100 1.35800
C 0.08300 -2.69500 1.50200
C 0.14900 -5.71500 -0.62300
C 0.09600 -4.62900 2.71600
O 0.20800 -5.74700 3.22100
C -0.25500 -3.42800 3.70100
C 0.71700 -3.48200 4.84800
O 1.93100 -3.25500 4.66900
O 0.03800 -3.55600 6.00300
C 0.94300 -3.58300 7.18300
H -1.85900 3.22000 2.49700
H -0.21800 2.45300 -3.47400
H 0.27600 -3.74700 -2.60500
H -1.55400 -0.94900 5.13200
H -1.58500 1.83100 4.66500
H -3.48400 -0.37700 3.96900
H -3.51100 1.02700 2.85800
H -3.85200 1.30100 4.54300
H 0.66900 1.09600 4.96600
H 1.13000 -0.63900 5.18900
H -0.84400 0.02600 7.12500
H 0.06200 1.47700 6.92100
H -1.34400 5.18600 1.93800
H -1.65100 5.96300 0.43200
H 0.00700 6.02000 1.08400
H -0.63500 6.74400 -1.40500
H 0.66500 6.97000 -2.70400
H 1.04800 6.46600 -1.03600
H 0.60800 0.50100 -4.89100
H -0.69200 -2.15600 -4.54700
H -1.26700 0.74000 -6.12900
H -2.20400 0.71400 -4.59600
H -1.96700 -0.72000 -5.45300
H 1.35600 -1.75900 -5.96700
H 1.45200 -3.15700 -4.90200
H 2.71400 -0.52200 -4.79800
H 3.48700 -2.12100 -4.52900
H 2.49500 -1.30300 -3.24000
H 0.86700 -6.33300 -0.08400
H 0.40400 -5.64200 -1.68000
H -0.89100 -5.99900 -0.46300
H -1.28300 -3.58100 4.02800
H 0.69800 -4.47800 7.75500
H 0.83300 -2.61900 7.68000
H 2.00000 -3.75400 6.97600
Mg 13.14505 1.18505 1.00614
C 13.08103 -1.92275 2.79961
C 11.91476 2.66403 3.82281
C 12.76433 3.84718 -0.67778
C 13.26713 -0.67615 -1.93779
N 12.60861 0.37053 2.99134
C 12.68478 -0.81483 3.57739
C 12.39276 -0.79858 5.10187
C 11.50296 0.53691 5.16203
C 12.06227 1.25863 3.93771
C 10.02215 0.28429 4.93247
C 13.69927 -0.65742 5.95925
C 13.52291 -0.94398 7.45208
H 14.61595 -1.59392 8.16994
N 12.91417 3.06250 1.60654
C 12.42105 3.48351 2.79012
C 12.43869 4.95342 2.73334
C 12.82817 5.36505 1.35727
C 12.83050 4.07953 0.68830
C 12.18337 5.81724 3.93419
C 13.13387 6.69695 0.74181
O 13.21760 6.84857 -0.52817
C 13.23988 7.83667 1.66446
N 12.81837 1.53961 -1.01622
C 12.74207 2.79386 -1.49470
C 12.78085 2.80512 -3.00425
C 13.14411 1.30867 -3.43586
C 13.16569 0.64174 -2.04297
C 11.48964 3.23586 -3.69969
C 14.37617 1.12314 -4.36337
C 15.64135 1.48579 -3.61962
N 13.35641 -0.90324 0.49388
C 13.35691 -1.46823 -0.80029
C 13.41176 -2.93522 -0.63487
C 13.41618 -3.12428 0.75535
C 13.34712 -1.86492 1.41015
C 13.40161 -3.89214 -1.68859
C 13.45283 -4.10332 1.81782
O 13.60098 -5.32359 1.86990
C 13.10984 -3.37489 3.18828
C 14.12528 -3.80655 4.21056
O 15.32255 -3.49548 4.08263
O 13.48602 -4.32492 5.27500
C 14.45059 -4.75745 6.32110
H 11.31894 3.18613 4.57200
H 12.74387 4.73971 -1.30742
H 13.40700 -1.32210 -2.80719
H 11.81965 -1.64382 5.46365
H 11.70537 1.10602 6.06564
H 9.82731 -0.73922 4.64855
H 9.72802 0.95941 4.13953
H 9.44745 0.58516 5.81311
H 13.98574 0.40122 6.00371
H 14.48325 -1.27320 5.56325
H 12.57104 -1.44512 7.66596