%nproc=24
%mem=175gb
#p cam-b3lyp/Def2SVP td=(nstates=5)

TDDFT excited states in gaussian

0 1
Mg 0.00000 0.00000 0.00000
C -0.21700 -2.21800 2.80100
C -1.25500 2.44200 2.02600
C -0.24500 1.85000 -2.56400
C 0.14600 -2.82400 -2.03700
N -0.61700 -0.00900 2.12600
C -0.59400 -0.90800 3.10500
C -0.93600 -0.30900 4.50200
C -1.77300 0.96400 4.03200
C -1.15500 1.16800 2.66000
C -3.26300 0.68500 3.86300
C 0.34500 0.11000 5.29900
C 0.12400 0.39700 6.78700
H 1.16800 0.03300 7.73300
N -0.18500 1.96100 -0.15200
C -0.70300 2.80000 0.77700
C -0.62000 4.15600 0.19300
C -0.18700 4.01500 -1.22500
C -0.21400 2.58300 -1.38000
C -0.88700 5.40600 0.97400
C 0.18100 5.01300 -2.27700
O 0.30300 4.69000 -3.50800
C 0.31000 6.41400 -1.83700
N -0.26500 -0.41300 -2.02900
C -0.27900 0.56900 -2.93700
C -0.19600 0.02400 -4.33200
C 0.12400 -1.53300 -4.18000
C 0.08600 -1.63200 -2.63500
C -1.45100 0.20500 -5.19700
C 1.37300 -2.07000 -4.92300
C 2.62600 -1.49000 -4.30600
N 0.15000 -2.14400 0.30300
C 0.17300 -3.13600 -0.68800
C 0.17300 -4.43800 0.00400
C 0.13300 -4.11100 1.35800
C 0.08300 -2.69500 1.50200
C 0.14900 -5.71500 -0.62300
C 0.09600 -4.62900 2.71600
O 0.20800 -5.74700 3.22100
C -0.25500 -3.42800 3.70100
C 0.71700 -3.48200 4.84800
O 1.93100 -3.25500 4.66900
O 0.03800 -3.55600 6.00300
C 0.94300 -3.58300 7.18300
H -1.85900 3.22000 2.49700
H -0.21800 2.45300 -3.47400
H 0.27600 -3.74700 -2.60500
H -1.55400 -0.94900 5.13200
H -1.58500 1.83100 4.66500
H -3.48400 -0.37700 3.96900
H -3.51100 1.02700 2.85800
H -3.85200 1.30100 4.54300
H 0.66900 1.09600 4.96600
H 1.13000 -0.63900 5.18900
H -0.84400 0.02600 7.12500
H 0.06200 1.47700 6.92100
H -1.34400 5.18600 1.93800
H -1.65100 5.96300 0.43200
H 0.00700 6.02000 1.08400
H -0.63500 6.74400 -1.40500
H 0.66500 6.97000 -2.70400
H 1.04800 6.46600 -1.03600
H 0.60800 0.50100 -4.89100
H -0.69200 -2.15600 -4.54700
H -1.26700 0.74000 -6.12900
H -2.20400 0.71400 -4.59600
H -1.96700 -0.72000 -5.45300
H 1.35600 -1.75900 -5.96700
H 1.45200 -3.15700 -4.90200
H 2.71400 -0.52200 -4.79800
H 3.48700 -2.12100 -4.52900
H 2.49500 -1.30300 -3.24000
H 0.86700 -6.33300 -0.08400
H 0.40400 -5.64200 -1.68000
H -0.89100 -5.99900 -0.46300
H -1.28300 -3.58100 4.02800
H 0.69800 -4.47800 7.75500
H 0.83300 -2.61900 7.68000
H 2.00000 -3.75400 6.97600
Mg 15.76436 1.41209 1.20509
C 13.67812 3.26816 3.45935
C 17.94347 1.00133 3.79688
C 17.82787 0.16531 -0.85765
C 14.02942 2.91473 -1.41746
N 15.70676 2.09301 3.30873
C 14.83475 2.73849 4.06853
C 15.18508 2.75159 5.58070
C 16.77138 2.53154 5.46194
C 16.81681 1.79772 4.12324
C 17.55014 3.82897 5.32209
C 14.49927 1.57723 6.36334
C 14.54561 1.70664 7.88743
H 13.40402 1.22730 8.66169
N 17.36302 0.27761 1.51461
C 18.11457 0.21859 2.63397
C 19.18431 -0.75044 2.34969
C 19.09937 -1.13534 0.91465
C 18.08428 -0.20978 0.45312
C 20.10638 -1.27887 3.40987
C 19.82240 -2.15746 0.09082
O 19.75903 -2.15779 -1.18934
C 20.68137 -3.10040 0.82193
N 16.05374 1.68002 -0.83619
C 16.98692 0.97583 -1.50043
C 16.82715 1.13139 -2.99397
C 15.43785 1.89620 -3.20009
C 15.06157 2.14013 -1.72215
C 17.94089 1.89906 -3.70576
C 14.39194 1.21813 -4.12688
C 13.88673 -0.05615 -3.48941
N 14.03111 2.68806 1.01589
C 13.49108 3.22232 -0.17449
C 12.38541 4.12164 0.21426
C 12.37367 4.06558 1.61612
C 13.41256 3.20866 2.06986
C 11.58534 4.89007 -0.67766
C 11.72544 4.54477 2.81566
O 10.72931 5.22736 3.05129
C 12.62182 4.14878 4.06710
C 11.72204 3.54553 5.11065
O 11.14184 2.46638 4.89758
O 11.86520 4.22597 6.26255
C 11.00094 3.65815 7.33140
H 18.79730 1.00774 4.47497
H 18.44213 -0.32425 -1.61692
H 13.37664 3.34427 -2.18038
H 14.97625 3.68622 6.08729
H 17.14239 1.89311 6.25951
H 16.89649 4.68075 5.20654
H 18.17069 3.70640 4.44406
H 18.23870 3.94790 6.16356
H 15.09524 0.66462 6.23406
H 13.48401 1.44720 6.04243
H 14.82978 2.71666 8.20689
H 15.34916 1.06994 8.26548
H 20.03707 -0.69036 4.33305
H 21.12951 -1.11060 3.05666
H 19.96749 -2.34614 3.59510
H 21.43458 -2.54667 1.37736
H 21.04207 -3.80814 0.07301
H 20.07006 -3.62906 1.56183
H 16.77168 0.16490 -3.47971
H 15.58185 2.88708 -3.65536
H 18.42172 1.31920 -4.51610
H 18.67272 2.20079 -2.96825
H 17.64150 2.85250 -4.13764
H 14.85553 0.92909 -5.07329
H 13.54689 1.85592 -4.36376
H 14.65419 -0.78795 -3.75881
H 12.91733 -0.33159 -3.89982
H 13.87942 0.02665 -2.39637
H 10.56192 4.79238 -0.34068
H 11.70013 4.55281 -1.70569
H 12.01644 5.88243 -0.52065
H 13.10855 5.05793 4.42223
H 10.37896 4.47625 7.70763
H 11.69129 3.17849 8.05049
H 10.24702 2.93770 7.03643

