%nproc=24
%mem=175gb
#p cam-b3lyp/Def2SVP td=(nstates=5)

TDDFT excited states in gaussian

0 1
Mg 0.00000 0.00000 0.00000
C -0.21700 -2.21800 2.80100
C -1.25500 2.44200 2.02600
C -0.24500 1.85000 -2.56400
C 0.14600 -2.82400 -2.03700
N -0.61700 -0.00900 2.12600
C -0.59400 -0.90800 3.10500
C -0.93600 -0.30900 4.50200
C -1.77300 0.96400 4.03200
C -1.15500 1.16800 2.66000
C -3.26300 0.68500 3.86300
C 0.34500 0.11000 5.29900
C 0.12400 0.39700 6.78700
H 1.16800 0.03300 7.73300
N -0.18500 1.96100 -0.15200
C -0.70300 2.80000 0.77700
C -0.62000 4.15600 0.19300
C -0.18700 4.01500 -1.22500
C -0.21400 2.58300 -1.38000
C -0.88700 5.40600 0.97400
C 0.18100 5.01300 -2.27700
O 0.30300 4.69000 -3.50800
C 0.31000 6.41400 -1.83700
N -0.26500 -0.41300 -2.02900
C -0.27900 0.56900 -2.93700
C -0.19600 0.02400 -4.33200
C 0.12400 -1.53300 -4.18000
C 0.08600 -1.63200 -2.63500
C -1.45100 0.20500 -5.19700
C 1.37300 -2.07000 -4.92300
C 2.62600 -1.49000 -4.30600
N 0.15000 -2.14400 0.30300
C 0.17300 -3.13600 -0.68800
C 0.17300 -4.43800 0.00400
C 0.13300 -4.11100 1.35800
C 0.08300 -2.69500 1.50200
C 0.14900 -5.71500 -0.62300
C 0.09600 -4.62900 2.71600
O 0.20800 -5.74700 3.22100
C -0.25500 -3.42800 3.70100
C 0.71700 -3.48200 4.84800
O 1.93100 -3.25500 4.66900
O 0.03800 -3.55600 6.00300
C 0.94300 -3.58300 7.18300
H -1.85900 3.22000 2.49700
H -0.21800 2.45300 -3.47400
H 0.27600 -3.74700 -2.60500
H -1.55400 -0.94900 5.13200
H -1.58500 1.83100 4.66500
H -3.48400 -0.37700 3.96900
H -3.51100 1.02700 2.85800
H -3.85200 1.30100 4.54300
H 0.66900 1.09600 4.96600
H 1.13000 -0.63900 5.18900
H -0.84400 0.02600 7.12500
H 0.06200 1.47700 6.92100
H -1.34400 5.18600 1.93800
H -1.65100 5.96300 0.43200
H 0.00700 6.02000 1.08400
H -0.63500 6.74400 -1.40500
H 0.66500 6.97000 -2.70400
H 1.04800 6.46600 -1.03600
H 0.60800 0.50100 -4.89100
H -0.69200 -2.15600 -4.54700
H -1.26700 0.74000 -6.12900
H -2.20400 0.71400 -4.59600
H -1.96700 -0.72000 -5.45300
H 1.35600 -1.75900 -5.96700
H 1.45200 -3.15700 -4.90200
H 2.71400 -0.52200 -4.79800
H 3.48700 -2.12100 -4.52900
H 2.49500 -1.30300 -3.24000
H 0.86700 -6.33300 -0.08400
H 0.40400 -5.64200 -1.68000
H -0.89100 -5.99900 -0.46300
H -1.28300 -3.58100 4.02800
H 0.69800 -4.47800 7.75500
H 0.83300 -2.61900 7.68000
H 2.00000 -3.75400 6.97600
Mg 8.93899 0.79897 0.68648
C 6.28308 0.60267 3.09204
C 10.75032 2.47004 3.04469
C 11.11810 1.38338 -1.54451
C 6.56376 0.15762 -1.78185
N 8.46901 1.39802 2.76314
C 7.45156 1.21500 3.59118
C 7.72988 1.64398 5.05681
C 8.89908 2.70886 4.77778
C 9.43593 2.14386 3.46430
C 8.38339 4.11449 4.51775
C 8.23764 0.45226 5.94225
C 8.23413 0.72309 7.44837
H 7.91585 -0.37830 8.35287
N 10.84152 1.33666 0.85915
C 11.41230 1.98806 1.89412
C 12.82592 2.16538 1.52752
C 13.00635 1.71194 0.12162
C 11.62806 1.47397 -0.25755
C 13.86481 2.64398 2.49968
C 14.21771 1.53549 -0.74307
O 14.12144 1.35798 -2.00879
C 15.52246 1.66983 -0.07894
N 8.82523 0.98547 -1.38103
C 9.93098 1.18778 -2.11880
C 9.64381 1.01372 -3.59109
C 8.16405 0.41260 -3.67205
C 7.80243 0.42733 -2.17058
C 9.72439 2.28285 -4.43916
C 7.98498 -0.91246 -4.46250
C 8.67791 -2.04362 -3.73744
N 6.84720 0.25987 0.64339
C 6.03997 0.06482 -0.49872
C 4.66206 -0.17374 -0.02239
C 4.75972 -0.07733 1.37391
C 6.09970 0.22162 1.74077
C 3.52238 -0.38972 -0.84737
C 4.03184 -0.14997 2.62036
O 2.88403 -0.45733 2.93939
C 4.96054 0.41213 3.78138
C 4.90297 -0.55532 4.93170
O 5.36016 -1.70580 4.81345
O 4.51856 0.10166 6.04118
C 4.45722 -0.81356 7.21183
H 11.31586 3.19699 3.62830
H 11.85189 1.46766 -2.34946
H 5.78489 -0.14731 -2.48403
H 6.89773 2.12733 5.55447
H 9.66249 2.66878 5.55041
H 7.30621 4.14169 4.44649
H 8.83233 4.42433 3.58313
H 8.76453 4.80247 5.27785
H 9.31452 0.31766 5.77807
H 7.68117 -0.44091 5.73441
H 7.64762 1.61344 7.70571
H 9.25159 0.97359 7.75828
H 13.40682 3.05676 3.40701
H 14.36701 3.49966 2.03549
H 14.60978 1.87947 2.73035
H 15.59593 2.65429 0.37703
H 16.26475 1.42241 -0.84029
H 15.57653 0.94033 0.73685
H 10.33415 0.30961 -4.03915
H 7.46946 1.10544 -4.16939
H 10.44123 2.20243 -5.27806
H 9.98709 3.10944 -3.79242
H 8.77902 2.61432 -4.86529
H 8.46017 -0.83540 -5.44353
H 6.94663 -1.17989 -4.62774
H 9.71747 -1.94619 -4.06441
H 8.25889 -3.00283 -4.03474
H 8.65746 -1.88684 -2.65271
H 2.96473 -1.20251 -0.40139
H 3.81039 -0.61889 -1.87123
H 3.03539 0.58577 -0.76650
H 4.58180 1.39744 4.05578
H 3.44779 -0.73399 7.62705
H 5.29668 -0.51601 7.86798
H 4.52361 -1.87806 7.01980

