%nproc=24
%mem=175gb
#p cam-b3lyp/Def2SVP td=(nstates=5)

TDDFT excited states in gaussian

0 1
Mg 0.00000 0.00000 0.00000
C -0.21700 -2.21800 2.80100
C -1.25500 2.44200 2.02600
C -0.24500 1.85000 -2.56400
C 0.14600 -2.82400 -2.03700
N -0.61700 -0.00900 2.12600
C -0.59400 -0.90800 3.10500
C -0.93600 -0.30900 4.50200
C -1.77300 0.96400 4.03200
C -1.15500 1.16800 2.66000
C -3.26300 0.68500 3.86300
C 0.34500 0.11000 5.29900
C 0.12400 0.39700 6.78700
H 1.16800 0.03300 7.73300
N -0.18500 1.96100 -0.15200
C -0.70300 2.80000 0.77700
C -0.62000 4.15600 0.19300
C -0.18700 4.01500 -1.22500
C -0.21400 2.58300 -1.38000
C -0.88700 5.40600 0.97400
C 0.18100 5.01300 -2.27700
O 0.30300 4.69000 -3.50800
C 0.31000 6.41400 -1.83700
N -0.26500 -0.41300 -2.02900
C -0.27900 0.56900 -2.93700
C -0.19600 0.02400 -4.33200
C 0.12400 -1.53300 -4.18000
C 0.08600 -1.63200 -2.63500
C -1.45100 0.20500 -5.19700
C 1.37300 -2.07000 -4.92300
C 2.62600 -1.49000 -4.30600
N 0.15000 -2.14400 0.30300
C 0.17300 -3.13600 -0.68800
C 0.17300 -4.43800 0.00400
C 0.13300 -4.11100 1.35800
C 0.08300 -2.69500 1.50200
C 0.14900 -5.71500 -0.62300
C 0.09600 -4.62900 2.71600
O 0.20800 -5.74700 3.22100
C -0.25500 -3.42800 3.70100
C 0.71700 -3.48200 4.84800
O 1.93100 -3.25500 4.66900
O 0.03800 -3.55600 6.00300
C 0.94300 -3.58300 7.18300
H -1.85900 3.22000 2.49700
H -0.21800 2.45300 -3.47400
H 0.27600 -3.74700 -2.60500
H -1.55400 -0.94900 5.13200
H -1.58500 1.83100 4.66500
H -3.48400 -0.37700 3.96900
H -3.51100 1.02700 2.85800
H -3.85200 1.30100 4.54300
H 0.66900 1.09600 4.96600
H 1.13000 -0.63900 5.18900
H -0.84400 0.02600 7.12500
H 0.06200 1.47700 6.92100
H -1.34400 5.18600 1.93800
H -1.65100 5.96300 0.43200
H 0.00700 6.02000 1.08400
H -0.63500 6.74400 -1.40500
H 0.66500 6.97000 -2.70400
H 1.04800 6.46600 -1.03600
H 0.60800 0.50100 -4.89100
H -0.69200 -2.15600 -4.54700
H -1.26700 0.74000 -6.12900
H -2.20400 0.71400 -4.59600
H -1.96700 -0.72000 -5.45300
H 1.35600 -1.75900 -5.96700
H 1.45200 -3.15700 -4.90200
H 2.71400 -0.52200 -4.79800
H 3.48700 -2.12100 -4.52900
H 2.49500 -1.30300 -3.24000
H 0.86700 -6.33300 -0.08400
H 0.40400 -5.64200 -1.68000
H -0.89100 -5.99900 -0.46300
H -1.28300 -3.58100 4.02800
H 0.69800 -4.47800 7.75500
H 0.83300 -2.61900 7.68000
H 2.00000 -3.75400 6.97600
Mg 13.14777 1.18683 0.99464
C 15.48300 -0.95139 2.68395
C 14.58432 3.80635 2.64056
C 10.82481 3.03548 -0.12509
C 11.20480 -1.64303 0.39262
N 14.81201 1.28762 2.44805
C 15.66497 0.41808 2.96835
C 16.82374 1.05946 3.77795
C 16.11100 2.44686 4.16002
C 15.12872 2.54607 2.99471
C 15.31393 2.37817 5.45204
C 18.10549 1.29380 2.90376
C 19.37160 1.62819 3.69553
H 20.65207 1.12545 3.20551
N 13.04579 3.16174 0.82758
C 13.71444 4.07603 1.56124
C 13.27674 5.38937 1.06352
C 12.17249 5.17733 0.08864
C 11.95270 3.75347 0.24490
C 13.94797 6.67336 1.45624
C 11.42778 6.10509 -0.82288
O 10.34559 5.74785 -1.40945
C 11.95160 7.47421 -0.93523
N 11.18563 0.79800 0.42793
C 10.40540 1.77102 -0.07445
C 9.13723 1.20279 -0.66543
C 9.33954 -0.38359 -0.67202
C 10.71318 -0.46644 0.02916
C 7.84538 1.54775 0.07519
C 9.15929 -1.11040 -2.03288
C 10.26590 -0.71060 -2.98207
N 13.37282 -0.94331 1.27731
C 12.42615 -1.94798 0.97973
C 12.98818 -3.22965 1.45288
C 14.22257 -2.87569 2.01810
C 14.40719 -1.46984 1.92330
C 12.34697 -4.49812 1.37584
C 15.40666 -3.37031 2.68292
O 15.84791 -4.48602 2.95536
C 16.21893 -2.13059 3.25711
C 17.66393 -2.30631 2.87814
O 18.01307 -2.27235 1.68501
O 18.41918 -2.26763 3.99101
C 19.86162 -2.42659 3.66560
H 14.81004 4.66528 3.27315
H 10.03922 3.61266 -0.61822
H 10.70404 -2.58380 0.15414
H 17.10026 0.52331 4.67787
H 16.81654 3.27328 4.13540
H 15.26124 1.37173 5.83989
H 14.32449 2.74148 5.20695
H 15.72073 3.08201 6.18379
H 17.98671 2.22613 2.33684
H 18.29037 0.45191 2.26528
H 19.25797 1.41268 4.76492
H 19.53088 2.70848 3.65528
H 14.61929 6.53094 2.31208
H 13.16554 7.34102 1.83294
H 14.45291 7.15823 0.61802
H 11.96685 7.93691 0.04871
H 11.34033 7.95922 -1.69877
H 12.99192 7.42394 -1.27553
H 8.99874 1.54363 -1.68413
H 8.61898 -0.88899 -0.01232
H 7.09601 2.05021 -0.56516
H 8.09491 2.16730 0.92633
H 7.34206 0.70363 0.54352
H 8.22139 -0.80567 -2.50366
H 9.13951 -2.19162 -1.94581
H 9.90500 0.23502 -3.39756
H 10.39287 -1.46067 -3.76008
H 11.19370 -0.49884 -2.43801
H 13.09657 -5.20657 1.04916
H 11.49834 -4.47396 0.69538
H 12.03539 -4.62268 2.41635
H 16.07782 -2.11899 4.33856
H 20.23063 -3.27222 4.25419
H 20.32199 -1.43941 3.85869
H 20.11695 -2.74109 2.66044

