%nproc=24
%mem=175gb
#p cam-b3lyp/Def2SVP td=(nstates=5)

TDDFT excited states in gaussian

0 1
Mg 10.50882 0.95485 0.80432
C 12.60238 0.33808 3.65312
C 7.85368 0.96634 2.94551
C 8.59613 1.04816 -1.72558
C 13.11186 -0.22544 -1.18987
N 10.37302 0.67752 2.99450
C 11.24144 0.51124 3.98067
C 10.62697 0.61189 5.40260
C 9.10999 0.23307 5.03637
C 9.09107 0.68340 3.57709
C 8.83578 -1.26104 5.07875
C 10.72982 2.06037 5.99702
C 10.43215 2.16359 7.49452
H 11.18352 3.13195 8.28839
N 8.60122 1.48157 0.65527
C 7.66834 1.44471 1.62978
C 6.41962 1.91357 1.00928
C 6.65305 2.07348 -0.45177
C 7.98226 1.50836 -0.56975
C 5.18851 2.23955 1.80397
C 5.81321 2.62974 -1.56147
O 6.12092 2.45184 -2.79293
C 4.57048 3.30856 -1.16609
N 10.72480 0.28518 -1.15201
C 9.76215 0.49884 -2.06612
C 10.25109 0.17803 -3.45838
C 11.82511 -0.06609 -3.31535
C 11.96481 0.07436 -1.78364
C 9.60663 -1.03640 -4.12640
C 12.75464 0.78479 -4.22345
C 12.68617 2.23849 -3.81423
N 12.56340 0.36437 1.11749
C 13.46796 -0.12299 0.14882
C 14.70709 -0.49848 0.86017
C 14.42699 -0.22286 2.20705
C 13.09946 0.26933 2.32913
C 15.87011 -1.06258 0.26412
C 14.94881 -0.24637 3.55459
O 16.04618 -0.48499 4.05714
C 13.74711 -0.00336 4.56615
C 14.18206 1.03559 5.56311
O 14.41170 2.20272 5.20023
O 14.04543 0.53824 6.80582
C 14.45403 1.53590 7.83029
H 6.93313 0.76369 3.49360
H 8.01673 1.16231 -2.64467
H 14.00377 -0.50925 -1.75256
H 11.02411 -0.09597 6.12022
H 8.40468 0.81484 5.62412
H 9.73910 -1.83221 5.23345
H 8.39239 -1.50598 4.12248
H 8.07289 -1.48312 5.83041
H 9.90789 2.66968 5.59965
H 11.69033 2.49024 5.78905
H 10.43357 1.18193 7.98368
H 9.40852 2.52448 7.62078
H 5.26340 1.86648 2.83286
H 4.36427 1.66595 1.36638
H 4.93581 3.30154 1.77252
H 3.94403 2.61795 -0.60655
H 4.15328 3.71541 -2.08929
H 4.82153 4.12877 -0.48430
H 10.08434 1.01232 -4.12864
H 12.10091 -1.10181 -3.56241
H 9.13151 -0.79966 -5.09711
H 8.88303 -1.45860 -3.44179
H 10.27636 -1.87658 -4.30178
H 12.41604 0.73827 -5.26141
H 13.78957 0.45975 -4.20745
H 11.79121 2.59832 -4.33060
H 13.57461 2.77207 -4.14591
H 12.50700 2.33614 -2.73720
H 16.72062 -0.55646 0.70115
H 15.85479 -0.95365 -0.81831
H 15.76138 -2.10558 0.57330
H 13.52139 -0.95835 5.04218
H 15.22141 1.06164 8.44988
H 13.51965 1.84570 8.33497
H 14.97651 2.42125 7.48731

