%nproc=24
%mem=175gb
#p cam-b3lyp/Def2SVP td=(nstates=5)

TDDFT excited states in gaussian

0 1
Mg 13.13858 1.18751 1.00756
C 11.38479 -1.25444 2.96719
C 10.67165 3.39667 1.82516
C 14.41177 3.22392 -1.06596
C 14.79485 -1.45442 -0.54893
N 11.31656 0.97978 2.24423
C 10.78560 0.02224 2.98958
C 9.58954 0.47899 3.86730
C 9.12548 1.74818 2.99972
C 10.45813 2.09208 2.33756
C 8.12637 1.39893 1.90925
C 10.03490 0.90202 5.31115
C 8.89158 1.06333 6.31541
H 9.12755 0.68376 7.70563
N 12.91321 3.15150 0.83283
C 11.85879 3.88897 1.23978
C 12.16924 5.27681 0.86336
C 13.41819 5.27516 0.05415
C 13.62261 3.85016 -0.11223
C 11.35923 6.44881 1.33633
C 14.27828 6.37440 -0.49185
O 15.18523 6.14733 -1.36861
C 13.96528 7.73782 -0.03951
N 14.26054 0.92143 -0.72239
C 14.73435 1.97647 -1.40820
C 15.73721 1.54350 -2.45089
C 16.02001 -0.00322 -2.15884
C 15.02088 -0.22930 -1.00298
C 15.30042 1.71490 -3.90561
C 17.50129 -0.42018 -1.94764
C 18.02835 0.17981 -0.66405
N 13.25526 -0.95245 1.28145
C 13.98871 -1.87344 0.50176
C 13.66278 -3.22451 1.00257
C 12.73736 -2.99536 2.03193
C 12.48776 -1.60135 2.14997
C 14.16395 -4.44932 0.47838
C 11.90683 -3.61652 3.03845
O 11.76709 -4.76277 3.46307
C 10.89835 -2.52626 3.60475
C 10.91927 -2.60974 5.10645
O 11.94792 -2.31770 5.74143
O 9.66615 -2.80868 5.55421
C 9.63373 -2.88736 7.03899
H 9.83842 4.09992 1.83291
H 14.96029 3.89041 -1.73557
H 15.34416 -2.32380 -0.91650
H 8.78011 -0.23741 3.94046
H 8.79526 2.56356 3.63806
H 7.98260 0.33229 1.82114
H 8.53780 1.80218 0.99319
H 7.18498 1.93015 2.07631
H 10.40728 1.93414 5.28301
H 10.76413 0.21847 5.70053
H 7.95651 0.62174 5.94989
H 8.66453 2.12756 6.41475
H 10.40785 6.12810 1.77841
H 11.06742 7.01605 0.44585
H 11.91930 7.10527 2.00569
H 12.93699 7.97747 -0.29963
H 14.74305 8.37341 -0.46727
H 14.02820 7.76672 1.05402
H 16.66357 2.09542 -2.34917
H 15.68831 -0.64217 -2.99044
H 15.99399 2.34035 -4.49878
H 14.30445 2.13738 -3.91543
H 15.16342 0.78744 -4.45899
H 18.12452 -0.02522 -2.75370
H 17.64833 -1.49480 -1.92392
H 18.31760 1.19119 -0.96493
H 18.88517 -0.38423 -0.30105
H 17.23154 0.27331 0.08295
H 14.42550 -5.06732 1.32701
H 15.02013 -4.28270 -0.17198
H 13.28840 -4.79674 -0.07657
H 9.91193 -2.74881 3.19606
H 9.15833 -3.83840 7.29822
H 9.12805 -1.96304 7.37616
H 10.58145 -2.97653 7.55698

