%nproc=24
%mem=175gb
#p cam-b3lyp/Def2SVP td=(nstates=5)

TDDFT excited states in gaussian

0 1
Mg 31.53975 2.84450 2.39002
C 30.93562 6.11824 3.73044
C 30.77458 4.12277 -0.67839
C 31.62399 -0.11400 1.24650
C 31.13736 1.59938 5.62010
N 30.94764 4.87345 1.73810
C 30.81078 6.05190 2.32707
C 30.60340 7.23946 1.34918
C 30.00669 6.42257 0.10198
C 30.63975 5.06008 0.37677
C 28.49594 6.26618 0.15232
C 31.95194 7.95049 0.97787
C 31.79477 9.30175 0.27705
H 32.76740 10.35232 0.56473
N 31.72383 2.19354 0.52429
C 31.38502 2.85147 -0.60426
C 31.69729 1.93612 -1.71276
C 32.09398 0.62185 -1.13826
C 31.80292 0.84814 0.26323
C 31.68161 2.36503 -3.15123
C 32.63255 -0.63550 -1.75080
O 32.68275 -1.73588 -1.09546
C 33.01250 -0.56318 -3.16922
N 31.19268 0.98720 3.25739
C 31.34866 -0.14591 2.55053
C 31.31467 -1.35873 3.44959
C 31.34555 -0.78746 4.94300
C 31.29999 0.72554 4.63617
C 30.10493 -2.27777 3.28144
C 32.46735 -1.31886 5.87673
C 33.81477 -0.83356 5.39264
N 31.29819 3.68945 4.36378
C 31.12059 2.98761 5.57621
C 30.88516 3.99424 6.63151
C 30.91950 5.22043 5.95049
C 31.13930 4.99279 4.56508
C 30.62956 3.71648 8.00397
C 30.80920 6.65497 6.08691
O 30.70943 7.43227 7.03537
C 30.68869 7.29278 4.63602
C 31.64461 8.45145 4.55712
O 32.87231 8.26339 4.62018
O 30.96669 9.55871 4.20389
C 31.87385 10.73279 4.10173
H 30.33445 4.36430 -1.64630
H 31.75386 -1.14918 0.92244
H 31.10055 1.29733 6.66895
H 29.88942 7.98302 1.68251
H 30.36437 6.82583 -0.84185
H 28.08407 6.62936 1.08216
H 28.30609 5.20647 0.04274
H 28.03812 6.74591 -0.71750
H 32.44878 7.38222 0.18103
H 32.57447 8.06296 1.84415
H 30.77279 9.69159 0.35786
H 31.94175 9.15541 -0.79579
H 31.19243 3.33905 -3.27525
H 31.03167 1.66452 -3.68671
H 32.67372 2.34582 -3.60733
H 32.14950 -0.26435 -3.75947
H 33.45761 -1.53242 -3.40230
H 33.76456 0.22447 -3.29023
H 32.18749 -1.98068 3.29314
H 30.42104 -1.02527 5.48941
H 30.38024 -3.32246 3.04294
H 29.46853 -1.86647 2.50920
H 29.43316 -2.31815 4.13719
H 32.50096 -2.41065 5.84500
H 32.33804 -1.03067 6.91462
H 34.07148 -1.55610 4.61218
H 34.54189 -0.85175 6.20197
H 33.73091 0.15022 4.91640
H 31.21867 4.41872 8.57870
H 30.87971 2.68773 8.25470
H 29.55213 3.89797 8.04233
H 29.65290 7.60668 4.50115
H 31.46837 11.50800 4.75923
H 31.93606 10.96927 3.02286
H 32.87805 10.62597 4.49494

