%nproc=24
%mem=175gb
#p cam-b3lyp/Def2SVP td=(nstates=5)

TDDFT excited states in gaussian

0 1
Mg 0.00000 0.00000 0.00000
C -0.21700 -2.21800 2.80100
C -1.25500 2.44200 2.02600
C -0.24500 1.85000 -2.56400
C 0.14600 -2.82400 -2.03700
N -0.61700 -0.00900 2.12600
C -0.59400 -0.90800 3.10500
C -0.93600 -0.30900 4.50200
C -1.77300 0.96400 4.03200
C -1.15500 1.16800 2.66000
C -3.26300 0.68500 3.86300
C 0.34500 0.11000 5.29900
C 0.12400 0.39700 6.78700
H 1.16800 0.03300 7.73300
N -0.18500 1.96100 -0.15200
C -0.70300 2.80000 0.77700
C -0.62000 4.15600 0.19300
C -0.18700 4.01500 -1.22500
C -0.21400 2.58300 -1.38000
C -0.88700 5.40600 0.97400
C 0.18100 5.01300 -2.27700
O 0.30300 4.69000 -3.50800
C 0.31000 6.41400 -1.83700
N -0.26500 -0.41300 -2.02900
C -0.27900 0.56900 -2.93700
C -0.19600 0.02400 -4.33200
C 0.12400 -1.53300 -4.18000
C 0.08600 -1.63200 -2.63500
C -1.45100 0.20500 -5.19700
C 1.37300 -2.07000 -4.92300
C 2.62600 -1.49000 -4.30600
N 0.15000 -2.14400 0.30300
C 0.17300 -3.13600 -0.68800
C 0.17300 -4.43800 0.00400
C 0.13300 -4.11100 1.35800
C 0.08300 -2.69500 1.50200
C 0.14900 -5.71500 -0.62300
C 0.09600 -4.62900 2.71600
O 0.20800 -5.74700 3.22100
C -0.25500 -3.42800 3.70100
C 0.71700 -3.48200 4.84800
O 1.93100 -3.25500 4.66900
O 0.03800 -3.55600 6.00300
C 0.94300 -3.58300 7.18300
H -1.85900 3.22000 2.49700
H -0.21800 2.45300 -3.47400
H 0.27600 -3.74700 -2.60500
H -1.55400 -0.94900 5.13200
H -1.58500 1.83100 4.66500
H -3.48400 -0.37700 3.96900
H -3.51100 1.02700 2.85800
H -3.85200 1.30100 4.54300
H 0.66900 1.09600 4.96600
H 1.13000 -0.63900 5.18900
H -0.84400 0.02600 7.12500
H 0.06200 1.47700 6.92100
H -1.34400 5.18600 1.93800
H -1.65100 5.96300 0.43200
H 0.00700 6.02000 1.08400
H -0.63500 6.74400 -1.40500
H 0.66500 6.97000 -2.70400
H 1.04800 6.46600 -1.03600
H 0.60800 0.50100 -4.89100
H -0.69200 -2.15600 -4.54700
H -1.26700 0.74000 -6.12900
H -2.20400 0.71400 -4.59600
H -1.96700 -0.72000 -5.45300
H 1.35600 -1.75900 -5.96700
H 1.45200 -3.15700 -4.90200
H 2.71400 -0.52200 -4.79800
H 3.48700 -2.12100 -4.52900
H 2.49500 -1.30300 -3.24000
H 0.86700 -6.33300 -0.08400
H 0.40400 -5.64200 -1.68000
H -0.89100 -5.99900 -0.46300
H -1.28300 -3.58100 4.02800
H 0.69800 -4.47800 7.75500
H 0.83300 -2.61900 7.68000
H 2.00000 -3.75400 6.97600
Mg 10.51718 0.95118 0.80538
C 10.29634 -1.27154 3.61426
C 9.26049 3.39275 2.82876
C 10.27533 2.81002 -1.75463
C 10.65714 -1.86847 -1.23807
N 9.89793 0.93988 2.92874
C 9.91692 0.05370 3.91295
C 9.58327 0.63857 5.31158
C 8.73861 1.92068 4.84082
C 9.35631 2.12649 3.45924
C 7.25695 1.63327 4.66357
C 10.86947 1.05826 6.10629
C 10.64183 1.34762 7.59162
H 11.69144 0.98549 8.54012
N 10.33438 2.92212 0.66203
C 9.82325 3.76135 1.58708
C 9.89302 5.10544 0.99318
C 10.33462 4.97079 -0.42159
C 10.31136 3.52932 -0.56894
C 9.63420 6.35724 1.78022
C 10.70298 5.97395 -1.47239
O 10.82723 5.64361 -2.70457
C 10.82239 7.37139 -1.03149
N 10.25937 0.54017 -1.21624
C 10.23962 1.53011 -2.12594
C 10.32081 0.98180 -3.53063
C 10.64426 -0.57570 -3.36584
C 10.60407 -0.68091 -1.82548
C 9.06506 1.15290 -4.38515
C 11.89457 -1.11756 -4.11135
C 13.15027 -0.53322 -3.50542
N 10.67077 -1.18263 1.10757
C 10.68789 -2.18580 0.11387
C 10.68762 -3.48860 0.81039
C 10.64679 -3.15050 2.17146
C 10.60288 -1.73713 2.31272
C 10.67392 -4.76675 0.18408
C 10.62012 -3.66808 3.52057
O 10.72470 -4.78561 4.02448
C 10.26434 -2.47747 4.51166
C 11.23545 -2.52264 5.65945
O 12.44582 -2.30691 5.47217
O 10.54933 -2.59691 6.81448
C 11.46893 -2.63298 7.98275
H 8.66234 4.16757 3.30913
H 10.30313 3.40687 -2.66922
H 10.79888 -2.79288 -1.80203
H 8.97157 -0.00048 5.93705
H 8.93522 2.77893 5.47809
H 7.03501 0.58178 4.76965
H 7.00843 1.97373 3.66689
H 6.66863 2.25070 5.34840
H 11.19083 2.05189 5.76840
H 11.64253 0.32288 5.99574
H 9.66769 0.98178 7.93826
H 10.58619 2.43014 7.72972
H 9.16975 6.13462 2.74879
H 8.87073 6.92446 1.23686
H 10.52576 6.97857 1.88856
H 9.87935 7.69494 -0.59738
H 11.17906 7.92340 -1.90324
H 11.57080 7.42354 -0.23288
H 11.12545 1.45128 -4.08312
H 9.82526 -1.20430 -3.74523
H 9.25090 1.69795 -5.32985
H 8.31621 1.66224 -3.79326
H 8.55828 0.22703 -4.65187
H 11.87846 -0.80135 -5.15725
H 11.96688 -2.20001 -4.10325
H 13.23250 0.43995 -3.99864
H 14.01060 -1.16171 -3.72649
H 13.02073 -0.34914 -2.43258
H 11.38479 -5.38292 0.71840
H 10.92425 -4.69457 -0.87228
H 9.62932 -5.04917 0.34002
H 9.23456 -2.62179 4.84075
H 11.22034 -3.53055 8.55743
H 11.34411 -1.65858 8.49139
H 12.52268 -2.79268 7.78639
158

Mg 0.00000 0.00000 0.00000
C -0.21700 -2.21800 2.80100
C -1.25500 2.44200 2.02600
C -0.24500 1.85000 -2.56400
C 0.14600 -2.82400 -2.03700
N -0.61700 -0.00900 2.12600
C -0.59400 -0.90800 3.10500
C -0.93600 -0.30900 4.50200
C -1.77300 0.96400 4.03200
C -1.15500 1.16800 2.66000
C -3.26300 0.68500 3.86300
C 0.34500 0.11000 5.29900
C 0.12400 0.39700 6.78700
H 1.16800 0.03300 7.73300
N -0.18500 1.96100 -0.15200
C -0.70300 2.80000 0.77700
C -0.62000 4.15600 0.19300
C -0.18700 4.01500 -1.22500
C -0.21400 2.58300 -1.38000
C -0.88700 5.40600 0.97400
C 0.18100 5.01300 -2.27700
O 0.30300 4.69000 -3.50800
C 0.31000 6.41400 -1.83700
N -0.26500 -0.41300 -2.02900
C -0.27900 0.56900 -2.93700
C -0.19600 0.02400 -4.33200
C 0.12400 -1.53300 -4.18000
C 0.08600 -1.63200 -2.63500
C -1.45100 0.20500 -5.19700
C 1.37300 -2.07000 -4.92300
C 2.62600 -1.49000 -4.30600
N 0.15000 -2.14400 0.30300
C 0.17300 -3.13600 -0.68800
C 0.17300 -4.43800 0.00400
C 0.13300 -4.11100 1.35800
C 0.08300 -2.69500 1.50200
C 0.14900 -5.71500 -0.62300
C 0.09600 -4.62900 2.71600
O 0.20800 -5.74700 3.22100
C -0.25500 -3.42800 3.70100
C 0.71700 -3.48200 4.84800
O 1.93100 -3.25500 4.66900
O 0.03800 -3.55600 6.00300
C 0.94300 -3.58300 7.18300
H -1.85900 3.22000 2.49700
H -0.21800 2.45300 -3.47400
H 0.27600 -3.74700 -2.60500
H -1.55400 -0.94900 5.13200
H -1.58500 1.83100 4.66500
H -3.48400 -0.37700 3.96900
H -3.51100 1.02700 2.85800
H -3.85200 1.30100 4.54300
H 0.66900 1.09600 4.96600
H 1.13000 -0.63900 5.18900
H -0.84400 0.02600 7.12500
H 0.06200 1.47700 6.92100
H -1.34400 5.18600 1.93800
H -1.65100 5.96300 0.43200
H 0.00700 6.02000 1.08400
H -0.63500 6.74400 -1.40500
H 0.66500 6.97000 -2.70400
H 1.04800 6.46600 -1.03600
H 0.60800 0.50100 -4.89100
H -0.69200 -2.15600 -4.54700
H -1.26700 0.74000 -6.12900
H -2.20400 0.71400 -4.59600
H -1.96700 -0.72000 -5.45300
H 1.35600 -1.75900 -5.96700
H 1.45200 -3.15700 -4.90200
H 2.71400 -0.52200 -4.79800
H 3.48700 -2.12100 -4.52900
H 2.49500 -1.30300 -3.24000
H 0.86700 -6.33300 -0.08400
H 0.40400 -5.64200 -1.68000
H -0.89100 -5.99900 -0.46300
H -1.28300 -3.58100 4.02800
H 0.69800 -4.47800 7.75500
H 0.83300 -2.61900 7.68000
H 2.00000 -3.75400 6.97600
Mg 10.51690 0.95160 0.80532
C 10.45306 -1.26506 3.62691
C 9.12114 3.32045 2.82399
C 10.14335 2.77739 -1.76264
C 10.82184 -1.86490 -1.22446
N 9.91223 0.91311 2.93256
C 9.99280 0.03532 3.92117
C 9.63133 0.60577 5.31884
C 8.70489 1.82960 4.84682
C 9.30019 2.06622 3.46035
C 7.24322 1.44861 4.68036
C 10.89328 1.10989 6.10329
C 10.65673 1.39256 7.58851
H 11.73267 1.10240 8.53225
N 10.20960 2.90633 0.65300
C 9.65220 3.71685 1.57692
C 9.63372 5.05936 0.97570
C 10.07450 4.94494 -0.44111
C 10.14110 3.50407 -0.58091
C 9.30134 6.29674 1.75791
C 10.37275 5.96346 -1.49934
O 10.51021 5.63479 -2.73057
C 10.40662 7.36806 -1.06639
N 10.27344 0.51404 -1.21251
C 10.18603 1.49574 -2.12714
C 10.29321 0.94587 -3.52947
C 10.71499 -0.58727 -3.35872
C 10.69066 -0.68629 -1.81762
C 9.02412 1.03294 -4.37695
C 11.99246 -1.05354 -4.10928
C 13.21248 -0.38805 -3.51426
N 10.80624 -1.16662 1.11749
C 10.88053 -2.17220 0.12887
C 10.96638 -3.46857 0.83206
C 10.91245 -3.12620 2.19161
C 10.78054 -1.71763 2.32588
C 11.02940 -4.74849 0.21242
C 10.92643 -3.63698 3.54350
O 11.10411 -4.74292 4.05247
C 10.50234 -2.46564 4.53067
C 11.48118 -2.44332 5.67256
O 12.67444 -2.15293 5.47657
O 10.80798 -2.55421 6.83224
C 11.73496 -2.52592 7.99488
H 8.47829 4.05876 3.30412
H 10.12810 3.36975 -2.68044
H 11.01810 -2.78167 -1.78455
H 9.06479 -0.06702 5.95142
H 8.85090 2.70202 5.47843
H 7.08852 0.38585 4.79324
H 6.96785 1.76726 3.68353
H 6.62130 2.03159 5.36570
H 11.14947 2.11989 5.75829
H 11.71041 0.42399 5.99166
H 9.70961 0.96811 7.94314
H 10.53391 2.47019 7.72140
H 8.85759 6.05070 2.73051
H 8.50048 6.81181 1.21645
H 10.15267 6.97349 1.85745
H 9.44769 7.63406 -0.62803
H 10.72266 7.93658 -1.94319
H 11.15500 7.47158 -0.27277
H 11.06341 1.46197 -4.08941
H 9.93492 -1.26822 -3.72972
H 9.16967 1.58338 -5.32559
H 8.24824 1.49744 -3.78299
H 8.57502 0.07558 -4.63572
H 11.95026 -0.74475 -5.15667
H 12.13278 -2.12924 -4.09608
H 13.23038 0.58563 -4.01298
H 14.10932 -0.96241 -3.73750
H 13.07800 -0.20656 -2.44159
H 11.78080 -5.31578 0.74542
H 11.26841 -4.66655 -0.84585
H 10.00559 -5.09518 0.37637
H 9.48566 -2.67262 4.86697
H 11.54676 -3.43416 8.57571
H 11.55210 -1.55851 8.49928
H 12.79548 -2.62012 7.79272
158

Mg 0.00000 0.00000 0.00000
C -0.21700 -2.21800 2.80100
C -1.25500 2.44200 2.02600
C -0.24500 1.85000 -2.56400
C 0.14600 -2.82400 -2.03700
N -0.61700 -0.00900 2.12600
C -0.59400 -0.90800 3.10500
C -0.93600 -0.30900 4.50200
C -1.77300 0.96400 4.03200
C -1.15500 1.16800 2.66000
C -3.26300 0.68500 3.86300
C 0.34500 0.11000 5.29900
C 0.12400 0.39700 6.78700
H 1.16800 0.03300 7.73300
N -0.18500 1.96100 -0.15200
C -0.70300 2.80000 0.77700
C -0.62000 4.15600 0.19300
C -0.18700 4.01500 -1.22500
C -0.21400 2.58300 -1.38000
C -0.88700 5.40600 0.97400
C 0.18100 5.01300 -2.27700
O 0.30300 4.69000 -3.50800
C 0.31000 6.41400 -1.83700
N -0.26500 -0.41300 -2.02900
C -0.27900 0.56900 -2.93700
C -0.19600 0.02400 -4.33200
C 0.12400 -1.53300 -4.18000
C 0.08600 -1.63200 -2.63500
C -1.45100 0.20500 -5.19700
C 1.37300 -2.07000 -4.92300
C 2.62600 -1.49000 -4.30600
N 0.15000 -2.14400 0.30300
C 0.17300 -3.13600 -0.68800
C 0.17300 -4.43800 0.00400
C 0.13300 -4.11100 1.35800
C 0.08300 -2.69500 1.50200
C 0.14900 -5.71500 -0.62300
C 0.09600 -4.62900 2.71600
O 0.20800 -5.74700 3.22100
C -0.25500 -3.42800 3.70100
C 0.71700 -3.48200 4.84800
O 1.93100 -3.25500 4.66900
O 0.03800 -3.55600 6.00300
C 0.94300 -3.58300 7.18300
H -1.85900 3.22000 2.49700
H -0.21800 2.45300 -3.47400
H 0.27600 -3.74700 -2.60500
H -1.55400 -0.94900 5.13200
H -1.58500 1.83100 4.66500
H -3.48400 -0.37700 3.96900
H -3.51100 1.02700 2.85800
H -3.85200 1.30100 4.54300
H 0.66900 1.09600 4.96600
H 1.13000 -0.63900 5.18900
H -0.84400 0.02600 7.12500
H 0.06200 1.47700 6.92100
H -1.34400 5.18600 1.93800
H -1.65100 5.96300 0.43200
H 0.00700 6.02000 1.08400
H -0.63500 6.74400 -1.40500
H 0.66500 6.97000 -2.70400
H 1.04800 6.46600 -1.03600
H 0.60800 0.50100 -4.89100
H -0.69200 -2.15600 -4.54700
H -1.26700 0.74000 -6.12900
H -2.20400 0.71400 -4.59600
H -1.96700 -0.72000 -5.45300
H 1.35600 -1.75900 -5.96700
H 1.45200 -3.15700 -4.90200
H 2.71400 -0.52200 -4.79800
H 3.48700 -2.12100 -4.52900
H 2.49500 -1.30300 -3.24000
H 0.86700 -6.33300 -0.08400
H 0.40400 -5.64200 -1.68000
H -0.89100 -5.99900 -0.46300
H -1.28300 -3.58100 4.02800
H 0.69800 -4.47800 7.75500
H 0.83300 -2.61900 7.68000
H 2.00000 -3.75400 6.97600
Mg 10.51660 0.95201 0.80525
C 10.60914 -1.24867 3.63854
C 8.98658 3.23950 2.82046
C 10.01364 2.73649 -1.76965
C 10.98606 -1.85091 -1.21191
N 9.92821 0.88731 2.93642
C 10.06972 0.02180 3.92900
C 9.68140 0.57610 5.32597
C 8.67700 1.73662 4.85350
C 9.24798 2.00255 3.46212
C 7.24124 1.26355 4.69819
C 10.91378 1.16291 6.09987
C 10.66874 1.43834 7.58508
H 11.76640 1.22162 8.52351
N 10.08602 2.88267 0.64483
C 9.48422 3.66162 1.56806
C 9.37774 4.99698 0.96007
C 9.81640 4.90268 -0.45887
C 9.97270 3.46810 -0.59168
C 8.97282 6.21530 1.73799
C 10.04368 5.93208 -1.52417
O 10.19422 5.60591 -2.75453
C 9.99168 7.33840 -1.09866
N 10.28915 0.48887 -1.20873
C 10.13471 1.45806 -2.12782
C 10.26792 0.90829 -3.52796
C 10.78634 -0.59433 -3.35199
C 10.77746 -0.68617 -1.81028
C 8.99085 0.91070 -4.36789
C 12.08613 -0.98347 -4.10816
C 13.26538 -0.23931 -3.52424
N 10.94049 -1.14207 1.12648
C 11.07202 -2.14643 0.14259
C 11.24345 -3.43094 0.85187
C 11.17618 -3.08513 2.20995
C 10.95670 -1.68692 2.33782
C 11.38319 -4.70776 0.23843
C 11.23030 -3.58654 3.56434
O 11.48024 -4.67630 4.07786
C 10.73924 -2.43877 4.54813
C 11.72150 -2.34862 5.68371
O 12.89295 -1.98486 5.47874
O 11.06352 -2.49523 6.84816
C 11.99378 -2.40228 8.00479
H 8.30142 3.93856 3.30082
H 9.95569 3.32164 -2.69036
H 11.23628 -2.75660 -1.76850
H 9.16208 -0.12749 5.96554
H 8.77158 2.61997 5.47968
H 7.15438 0.19380 4.81749
H 6.94044 1.55875 3.70148
H 6.58796 1.81005 5.38441
H 11.10385 2.18509 5.74808
H 11.77176 0.52914 5.98664
H 9.75234 0.95712 7.94783
H 10.47916 2.50682 7.71320
H 8.55122 5.94722 2.71461
H 8.13792 6.67599 1.19894
H 9.78046 6.94479 1.82871
H 9.02054 7.54598 -0.65565
H 10.26610 7.92082 -1.98033
H 10.73678 7.49316 -0.31030
H 11.00078 1.46870 -4.09537
H 10.04847 -1.32502 -3.71458
H 9.09584 1.46395 -5.32023
H 8.19083 1.32876 -3.77145
H 8.60135 -0.07443 -4.61891
H 12.01836 -0.68374 -5.15683
H 12.29393 -2.04813 -4.09031
H 13.21902 0.73080 -4.02806
H 14.19524 -0.75735 -3.75016
H 13.12613 -0.06071 -2.45169
H 12.17195 -5.22372 0.76961
H 11.61026 -4.61679 -0.82172
H 10.38421 -5.11724 0.41059
H 9.73961 -2.70741 4.89186
H 11.86656 -3.31734 8.59145
H 11.75343 -1.44551 8.50535
H 13.05691 -2.43072 7.79646
158

Mg 0.00000 0.00000 0.00000
C -0.21700 -2.21800 2.80100
C -1.25500 2.44200 2.02600
C -0.24500 1.85000 -2.56400
C 0.14600 -2.82400 -2.03700
N -0.61700 -0.00900 2.12600
C -0.59400 -0.90800 3.10500
C -0.93600 -0.30900 4.50200
C -1.77300 0.96400 4.03200
C -1.15500 1.16800 2.66000
C -3.26300 0.68500 3.86300
C 0.34500 0.11000 5.29900
C 0.12400 0.39700 6.78700
H 1.16800 0.03300 7.73300
N -0.18500 1.96100 -0.15200
C -0.70300 2.80000 0.77700
C -0.62000 4.15600 0.19300
C -0.18700 4.01500 -1.22500
C -0.21400 2.58300 -1.38000
C -0.88700 5.40600 0.97400
C 0.18100 5.01300 -2.27700
O 0.30300 4.69000 -3.50800
C 0.31000 6.41400 -1.83700
N -0.26500 -0.41300 -2.02900
C -0.27900 0.56900 -2.93700
C -0.19600 0.02400 -4.33200
C 0.12400 -1.53300 -4.18000
C 0.08600 -1.63200 -2.63500
C -1.45100 0.20500 -5.19700
C 1.37300 -2.07000 -4.92300
C 2.62600 -1.49000 -4.30600
N 0.15000 -2.14400 0.30300
C 0.17300 -3.13600 -0.68800
C 0.17300 -4.43800 0.00400
C 0.13300 -4.11100 1.35800
C 0.08300 -2.69500 1.50200
C 0.14900 -5.71500 -0.62300
C 0.09600 -4.62900 2.71600
O 0.20800 -5.74700 3.22100
C -0.25500 -3.42800 3.70100
C 0.71700 -3.48200 4.84800
O 1.93100 -3.25500 4.66900
O 0.03800 -3.55600 6.00300
C 0.94300 -3.58300 7.18300
H -1.85900 3.22000 2.49700
H -0.21800 2.45300 -3.47400
H 0.27600 -3.74700 -2.60500
H -1.55400 -0.94900 5.13200
H -1.58500 1.83100 4.66500
H -3.48400 -0.37700 3.96900
H -3.51100 1.02700 2.85800
H -3.85200 1.30100 4.54300
H 0.66900 1.09600 4.96600
H 1.13000 -0.63900 5.18900
H -0.84400 0.02600 7.12500
H 0.06200 1.47700 6.92100
H -1.34400 5.18600 1.93800
H -1.65100 5.96300 0.43200
H 0.00700 6.02000 1.08400
H -0.63500 6.74400 -1.40500
H 0.66500 6.97000 -2.70400
H 1.04800 6.46600 -1.03600
H 0.60800 0.50100 -4.89100
H -0.69200 -2.15600 -4.54700
H -1.26700 0.74000 -6.12900
H -2.20400 0.71400 -4.59600
H -1.96700 -0.72000 -5.45300
H 1.35600 -1.75900 -5.96700
H 1.45200 -3.15700 -4.90200
H 2.71400 -0.52200 -4.79800
H 3.48700 -2.12100 -4.52900
H 2.49500 -1.30300 -3.24000
H 0.86700 -6.33300 -0.08400
H 0.40400 -5.64200 -1.68000
H -0.89100 -5.99900 -0.46300
H -1.28300 -3.58100 4.02800
H 0.69800 -4.47800 7.75500
H 0.83300 -2.61900 7.68000
H 2.00000 -3.75400 6.97600
Mg 10.51626 0.95240 0.80519
C 10.76394 -1.22243 3.64910
C 8.85737 3.15024 2.81819
C 9.88672 2.68747 -1.77563
C 11.14915 -1.82655 -1.20046
N 9.94580 0.86259 2.94031
C 10.14739 0.01319 3.93642
C 9.73329 0.54967 5.33293
C 8.65506 1.64211 4.86083
C 9.19989 1.93573 3.46454
C 7.25101 1.07884 4.71698
C 10.93088 1.21709 6.09605
C 10.67784 1.48476 7.58134
H 11.79252 1.34269 8.51395
N 9.96411 2.85124 0.63756
C 9.32000 3.59589 1.56054
C 9.12610 4.91853 0.94638
C 9.56138 4.84417 -0.47478
C 9.80684 3.42155 -0.60120
C 8.64996 6.11326 1.72056
C 9.71710 5.87994 -1.54677
O 9.88054 5.55709 -2.77636
C 9.57925 7.28253 -1.12816
N 10.30643 0.46475 -1.20492
C 10.08585 1.41723 -2.12799
C 10.24506 0.86920 -3.52610
C 10.85803 -0.59685 -3.34567
C 10.86412 -0.68056 -1.80348
C 8.96540 0.78666 -4.35798
C 12.17521 -0.90765 -4.10798
C 13.30876 -0.08759 -3.53532
N 11.07298 -1.10908 1.13449
C 11.26159 -2.10859 0.15497
C 11.51771 -3.37584 0.86975
C 11.43689 -3.02746 2.22643
C 11.13065 -1.64513 2.34849
C 11.73386 -4.64472 0.26201
C 11.53052 -3.51699 3.58301
O 11.85158 -4.58601 4.10054
C 10.97407 -2.39695 4.56396
C 11.95546 -2.23894 5.69286
O 13.10045 -1.80337 5.47867
O 11.31494 -2.42020 6.86216
C 12.24438 -2.26256 8.01243
H 8.13245 3.80747 3.29925
H 9.78659 3.26272 -2.69896
H 11.45255 -2.71776 -1.75396
H 9.26308 -0.18163 5.97936
H 8.69760 2.53311 5.48186
H 7.23234 0.00642 4.84231
H 6.92631 1.34902 3.72068
H 6.56873 1.58695 5.40448
H 11.05417 2.24724 5.73783
H 11.82635 0.63791 5.98068
H 9.79570 0.94888 7.95231
H 10.42216 2.53990 7.70515
H 8.25188 5.82459 2.70118
H 7.78454 6.51755 1.18441
H 9.41062 6.89258 1.80245
H 8.59962 7.43107 -0.68014
H 9.81123 7.87618 -2.01453
H 10.31780 7.48819 -0.34531
H 10.93782 1.47144 -4.10097
H 10.16545 -1.37449 -3.69986
H 9.02970 1.34015 -5.31380
H 8.14422 1.15686 -3.75869
H 8.63716 -0.22239 -4.60149
H 12.08248 -0.61856 -5.15774
H 12.44969 -1.95702 -4.08597
H 13.19845 0.87489 -4.04381
H 14.26801 -0.54737 -3.76442
H 13.16493 0.08782 -2.46285
H 12.55667 -5.10711 0.79086
H 11.94845 -4.54550 -0.80000
H 10.76367 -5.11525 0.44255
H 9.99539 -2.72602 4.91534
H 12.17847 -3.18055 8.60457
H 11.94728 -1.32005 8.50957
H 13.30593 -2.22523 7.79757
158

Mg 0.00000 0.00000 0.00000
C -0.21700 -2.21800 2.80100
C -1.25500 2.44200 2.02600
C -0.24500 1.85000 -2.56400
C 0.14600 -2.82400 -2.03700
N -0.61700 -0.00900 2.12600
C -0.59400 -0.90800 3.10500
C -0.93600 -0.30900 4.50200
C -1.77300 0.96400 4.03200
C -1.15500 1.16800 2.66000
C -3.26300 0.68500 3.86300
C 0.34500 0.11000 5.29900
C 0.12400 0.39700 6.78700
H 1.16800 0.03300 7.73300
N -0.18500 1.96100 -0.15200
C -0.70300 2.80000 0.77700
C -0.62000 4.15600 0.19300
C -0.18700 4.01500 -1.22500
C -0.21400 2.58300 -1.38000
C -0.88700 5.40600 0.97400
C 0.18100 5.01300 -2.27700
O 0.30300 4.69000 -3.50800
C 0.31000 6.41400 -1.83700
N -0.26500 -0.41300 -2.02900
C -0.27900 0.56900 -2.93700
C -0.19600 0.02400 -4.33200
C 0.12400 -1.53300 -4.18000
C 0.08600 -1.63200 -2.63500
C -1.45100 0.20500 -5.19700
C 1.37300 -2.07000 -4.92300
C 2.62600 -1.49000 -4.30600
N 0.15000 -2.14400 0.30300
C 0.17300 -3.13600 -0.68800
C 0.17300 -4.43800 0.00400
C 0.13300 -4.11100 1.35800
C 0.08300 -2.69500 1.50200
C 0.14900 -5.71500 -0.62300
C 0.09600 -4.62900 2.71600
O 0.20800 -5.74700 3.22100
C -0.25500 -3.42800 3.70100
C 0.71700 -3.48200 4.84800
O 1.93100 -3.25500 4.66900
O 0.03800 -3.55600 6.00300
C 0.94300 -3.58300 7.18300
H -1.85900 3.22000 2.49700
H -0.21800 2.45300 -3.47400
H 0.27600 -3.74700 -2.60500
H -1.55400 -0.94900 5.13200
H -1.58500 1.83100 4.66500
H -3.48400 -0.37700 3.96900
H -3.51100 1.02700 2.85800
H -3.85200 1.30100 4.54300
H 0.66900 1.09600 4.96600
H 1.13000 -0.63900 5.18900
H -0.84400 0.02600 7.12500
H 0.06200 1.47700 6.92100
H -1.34400 5.18600 1.93800
H -1.65100 5.96300 0.43200
H 0.00700 6.02000 1.08400
H -0.63500 6.74400 -1.40500
H 0.66500 6.97000 -2.70400
H 1.04800 6.46600 -1.03600
H 0.60800 0.50100 -4.89100
H -0.69200 -2.15600 -4.54700
H -1.26700 0.74000 -6.12900
H -2.20400 0.71400 -4.59600
H -1.96700 -0.72000 -5.45300
H 1.35600 -1.75900 -5.96700
H 1.45200 -3.15700 -4.90200
H 2.71400 -0.52200 -4.79800
H 3.48700 -2.12100 -4.52900
H 2.49500 -1.30300 -3.24000
H 0.86700 -6.33300 -0.08400
H 0.40400 -5.64200 -1.68000
H -0.89100 -5.99900 -0.46300
H -1.28300 -3.58100 4.02800
H 0.69800 -4.47800 7.75500
H 0.83300 -2.61900 7.68000
H 2.00000 -3.75400 6.97600
Mg 10.51591 0.95276 0.80512
C 10.91684 -1.18645 3.65856
C 8.73402 3.05301 2.81719
C 9.76310 2.63053 -1.78057
C 11.31044 -1.79191 -1.19017
N 9.96494 0.83905 2.94422
C 10.22549 0.00952 3.94339
C 9.78677 0.52660 5.33971
C 8.63916 1.54645 4.86878
C 9.15611 1.86604 3.46761
C 7.27249 0.89521 4.73665
C 10.94451 1.27221 6.09185
C 10.68397 1.53164 7.57730
H 11.81091 1.46510 8.50361
N 9.84439 2.81217 0.63121
C 9.16020 3.51993 1.55438
C 8.87981 4.82434 0.93468
C 9.31045 4.76966 -0.48880
C 9.64418 3.36461 -0.60945
C 8.33406 5.99102 1.70569
C 9.39431 5.80723 -1.56704
O 9.57042 5.48852 -2.79596
C 9.17097 7.20066 -1.15479
N 10.32522 0.44180 -1.20109
C 10.03966 1.37341 -2.12764
C 10.22472 0.82876 -3.52389
C 10.92978 -0.59482 -3.33979
C 10.95029 -0.66946 -1.79726
C 8.94786 0.66131 -4.34728
C 12.25934 -0.82638 -4.10876
C 13.34244 0.06650 -3.54745
N 11.20317 -1.06777 1.14151
C 11.44847 -2.05884 0.16596
C 11.78807 -3.30351 0.88562
C 11.69356 -2.95341 2.24098
C 11.30168 -1.59243 2.35785
C 12.08001 -4.55962 0.28306
C 11.82587 -3.42859 3.59943
O 12.21663 -4.47243 4.12042
C 11.20589 -2.34036 4.57810
C 12.18209 -2.11472 5.69999
O 13.29612 -1.60919 5.47637
O 11.56122 -2.32944 6.87420
C 12.48572 -2.10731 8.01778
H 7.97206 3.66600 3.29942
H 9.62148 3.19325 -2.70619
H 11.66602 -2.66533 -1.74097
H 9.36736 -0.22925 5.99283
H 8.62924 2.44177 5.48495
H 7.32209 -0.17555 4.86761
H 6.92552 1.13893 3.74104
H 6.56370 1.36319 5.42581
H 11.00061 2.30609 5.72757
H 11.87395 0.74987 5.97383
H 9.83952 0.94340 7.95655
H 10.36316 2.56928 7.69730
H 7.96077 5.68330 2.69025
H 7.44174 6.33712 1.17291
H 9.04465 6.81708 1.77879
H 8.18663 7.28978 -0.70139
H 9.35987 7.80283 -2.04563
H 9.89977 7.45668 -0.37767
H 10.87478 1.47020 -4.10619
H 10.28541 -1.41642 -3.68562
H 8.97152 1.21247 -5.30631
H 8.10859 0.98245 -3.74475
H 8.68232 -0.36770 -4.58353
H 12.14236 -0.54950 -5.15938
H 12.59943 -1.85627 -4.08308
H 13.16877 1.01731 -4.06018
H 14.32733 -0.33331 -3.78020
H 13.19424 0.23843 -2.47501
H 12.93341 -4.96643 0.80910
H 12.28161 -4.45297 -0.78078
H 11.14243 -5.08922 0.47210
H 10.25196 -2.72838 4.93731
H 12.48123 -3.02435 8.61503
H 12.13287 -1.18262 8.51193
H 13.54152 -2.00448 7.79607
158

Mg 0.00000 0.00000 0.00000
C -0.21700 -2.21800 2.80100
C -1.25500 2.44200 2.02600
C -0.24500 1.85000 -2.56400
C 0.14600 -2.82400 -2.03700
N -0.61700 -0.00900 2.12600
C -0.59400 -0.90800 3.10500
C -0.93600 -0.30900 4.50200
C -1.77300 0.96400 4.03200
C -1.15500 1.16800 2.66000
C -3.26300 0.68500 3.86300
C 0.34500 0.11000 5.29900
C 0.12400 0.39700 6.78700
H 1.16800 0.03300 7.73300
N -0.18500 1.96100 -0.15200
C -0.70300 2.80000 0.77700
C -0.62000 4.15600 0.19300
C -0.18700 4.01500 -1.22500
C -0.21400 2.58300 -1.38000
C -0.88700 5.40600 0.97400
C 0.18100 5.01300 -2.27700
O 0.30300 4.69000 -3.50800
C 0.31000 6.41400 -1.83700
N -0.26500 -0.41300 -2.02900
C -0.27900 0.56900 -2.93700
C -0.19600 0.02400 -4.33200
C 0.12400 -1.53300 -4.18000
C 0.08600 -1.63200 -2.63500
C -1.45100 0.20500 -5.19700
C 1.37300 -2.07000 -4.92300
C 2.62600 -1.49000 -4.30600
N 0.15000 -2.14400 0.30300
C 0.17300 -3.13600 -0.68800
C 0.17300 -4.43800 0.00400
C 0.13300 -4.11100 1.35800
C 0.08300 -2.69500 1.50200
C 0.14900 -5.71500 -0.62300
C 0.09600 -4.62900 2.71600
O 0.20800 -5.74700 3.22100
C -0.25500 -3.42800 3.70100
C 0.71700 -3.48200 4.84800
O 1.93100 -3.25500 4.66900
O 0.03800 -3.55600 6.00300
C 0.94300 -3.58300 7.18300
H -1.85900 3.22000 2.49700
H -0.21800 2.45300 -3.47400
H 0.27600 -3.74700 -2.60500
H -1.55400 -0.94900 5.13200
H -1.58500 1.83100 4.66500
H -3.48400 -0.37700 3.96900
H -3.51100 1.02700 2.85800
H -3.85200 1.30100 4.54300
H 0.66900 1.09600 4.96600
H 1.13000 -0.63900 5.18900
H -0.84400 0.02600 7.12500
H 0.06200 1.47700 6.92100
H -1.34400 5.18600 1.93800
H -1.65100 5.96300 0.43200
H 0.00700 6.02000 1.08400
H -0.63500 6.74400 -1.40500
H 0.66500 6.97000 -2.70400
H 1.04800 6.46600 -1.03600
H 0.60800 0.50100 -4.89100
H -0.69200 -2.15600 -4.54700
H -1.26700 0.74000 -6.12900
H -2.20400 0.71400 -4.59600
H -1.96700 -0.72000 -5.45300
H 1.35600 -1.75900 -5.96700
H 1.45200 -3.15700 -4.90200
H 2.71400 -0.52200 -4.79800
H 3.48700 -2.12100 -4.52900
H 2.49500 -1.30300 -3.24000
H 0.86700 -6.33300 -0.08400
H 0.40400 -5.64200 -1.68000
H -0.89100 -5.99900 -0.46300
H -1.28300 -3.58100 4.02800
H 0.69800 -4.47800 7.75500
H 0.83300 -2.61900 7.68000
H 2.00000 -3.75400 6.97600
Mg 10.51553 0.95311 0.80505
C 11.06724 -1.14087 3.66686
C 8.61702 2.94821 2.81747
C 9.64328 2.56591 -1.78444
C 11.46930 -1.74715 -1.18106
N 9.98554 0.81678 2.94813
C 10.30371 0.01081 3.94989
C 9.84163 0.50698 5.34626
C 8.62935 1.45002 4.87733
C 9.11682 1.79374 3.47131
C 7.30561 0.71341 4.75713
C 10.95462 1.32806 6.08727
C 10.68712 1.57879 7.57298
H 11.82150 1.58836 8.49252
N 9.72733 2.76561 0.62582
C 9.00547 3.43403 1.54963
C 8.63988 4.71479 0.92500
C 9.06463 4.67944 -0.50085
C 9.48537 3.29751 -0.61637
C 8.02640 5.84907 1.69342
C 9.07662 5.71426 -1.58492
O 9.26513 5.40047 -2.81326
C 8.76851 7.09314 -1.17843
N 10.34544 0.42009 -1.19727
C 9.99632 1.32677 -2.12678
C 10.20697 0.78713 -3.52134
C 11.00129 -0.58825 -3.33437
C 11.03564 -0.65294 -1.79164
C 8.93830 0.53518 -4.33582
C 12.33819 -0.73998 -4.11048
C 13.36628 0.22233 -3.56058
N 11.33055 -1.01832 1.14749
C 11.63192 -1.99738 0.17553
C 12.05342 -3.21423 0.89942
C 11.94514 -2.86329 2.25353
C 11.46910 -1.52902 2.36587
C 12.42023 -4.45280 0.30150
C 12.11516 -3.32170 3.61355
O 12.57392 -4.33601 4.13743
C 11.43378 -2.26922 4.59049
C 12.40050 -1.97645 5.70504
O 13.47916 -1.40311 5.47184
O 11.80136 -2.22330 6.88422
C 12.71684 -1.93717 8.02082
H 7.82089 3.51473 3.30132
H 9.46104 3.11348 -2.71203
H 11.87584 -2.59950 -1.72959
H 9.47450 -0.27013 6.00588
H 8.56678 2.34634 5.48894
H 7.42325 -0.35138 4.89328
H 6.93806 0.92933 3.76248
H 6.57289 1.13969 5.44832
H 10.94339 2.36139 5.71735
H 11.91437 0.86456 5.96610
H 9.88362 0.94071 7.96055
H 10.30237 2.59484 7.68966
H 7.67907 5.52394 2.68188
H 7.11092 6.13543 1.16449
H 8.68403 6.71858 1.75782
H 7.78322 7.12268 -0.71931
H 8.91384 7.70106 -2.07352
H 9.48437 7.39877 -0.40723
H 10.81191 1.46496 -4.11101
H 10.40784 -1.45064 -3.67192
H 8.92153 1.08143 -5.29781
H 8.08409 0.80622 -3.72969
H 8.73663 -0.50979 -4.56512
H 12.19777 -0.47681 -5.16175
H 12.74255 -1.74629 -4.08165
H 13.13008 1.15749 -4.07708
H 14.37298 -0.11603 -3.79746
H 13.21394 0.39051 -2.48813
H 13.30065 -4.80223 0.82425
H 12.60839 -4.33956 -0.76412
H 11.51898 -5.03927 0.49915
H 10.50831 -2.71448 4.95767
H 12.77361 -2.84936 8.62279
H 12.30946 -1.03378 8.51242
H 13.76275 -1.76937 7.79195
158

Mg 0.00000 0.00000 0.00000
C -0.21700 -2.21800 2.80100
C -1.25500 2.44200 2.02600
C -0.24500 1.85000 -2.56400
C 0.14600 -2.82400 -2.03700
N -0.61700 -0.00900 2.12600
C -0.59400 -0.90800 3.10500
C -0.93600 -0.30900 4.50200
C -1.77300 0.96400 4.03200
C -1.15500 1.16800 2.66000
C -3.26300 0.68500 3.86300
C 0.34500 0.11000 5.29900
C 0.12400 0.39700 6.78700
H 1.16800 0.03300 7.73300
N -0.18500 1.96100 -0.15200
C -0.70300 2.80000 0.77700
C -0.62000 4.15600 0.19300
C -0.18700 4.01500 -1.22500
C -0.21400 2.58300 -1.38000
C -0.88700 5.40600 0.97400
C 0.18100 5.01300 -2.27700
O 0.30300 4.69000 -3.50800
C 0.31000 6.41400 -1.83700
N -0.26500 -0.41300 -2.02900
C -0.27900 0.56900 -2.93700
C -0.19600 0.02400 -4.33200
C 0.12400 -1.53300 -4.18000
C 0.08600 -1.63200 -2.63500
C -1.45100 0.20500 -5.19700
C 1.37300 -2.07000 -4.92300
C 2.62600 -1.49000 -4.30600
N 0.15000 -2.14400 0.30300
C 0.17300 -3.13600 -0.68800
C 0.17300 -4.43800 0.00400
C 0.13300 -4.11100 1.35800
C 0.08300 -2.69500 1.50200
C 0.14900 -5.71500 -0.62300
C 0.09600 -4.62900 2.71600
O 0.20800 -5.74700 3.22100
C -0.25500 -3.42800 3.70100
C 0.71700 -3.48200 4.84800
O 1.93100 -3.25500 4.66900
O 0.03800 -3.55600 6.00300
C 0.94300 -3.58300 7.18300
H -1.85900 3.22000 2.49700
H -0.21800 2.45300 -3.47400
H 0.27600 -3.74700 -2.60500
H -1.55400 -0.94900 5.13200
H -1.58500 1.83100 4.66500
H -3.48400 -0.37700 3.96900
H -3.51100 1.02700 2.85800
H -3.85200 1.30100 4.54300
H 0.66900 1.09600 4.96600
H 1.13000 -0.63900 5.18900
H -0.84400 0.02600 7.12500
H 0.06200 1.47700 6.92100
H -1.34400 5.18600 1.93800
H -1.65100 5.96300 0.43200
H 0.00700 6.02000 1.08400
H -0.63500 6.74400 -1.40500
H 0.66500 6.97000 -2.70400
H 1.04800 6.46600 -1.03600
H 0.60800 0.50100 -4.89100
H -0.69200 -2.15600 -4.54700
H -1.26700 0.74000 -6.12900
H -2.20400 0.71400 -4.59600
H -1.96700 -0.72000 -5.45300
H 1.35600 -1.75900 -5.96700
H 1.45200 -3.15700 -4.90200
H 2.71400 -0.52200 -4.79800
H 3.48700 -2.12100 -4.52900
H 2.49500 -1.30300 -3.24000
H 0.86700 -6.33300 -0.08400
H 0.40400 -5.64200 -1.68000
H -0.89100 -5.99900 -0.46300
H -1.28300 -3.58100 4.02800
H 0.69800 -4.47800 7.75500
H 0.83300 -2.61900 7.68000
H 2.00000 -3.75400 6.97600
Mg 10.51513 0.95342 0.80499
C 11.21451 -1.08588 3.67399
C 8.50686 2.83627 2.81902
C 9.52774 2.49386 -1.78722
C 11.62508 -1.69243 -1.17318
N 10.00752 0.79588 2.95203
C 10.38173 0.01705 3.95589
C 9.89766 0.49088 5.35258
C 8.62567 1.35322 4.88643
C 9.08219 1.71915 3.47563
C 7.35021 0.53416 4.77834
C 10.96117 1.38441 6.08235
C 10.68726 1.62601 7.56840
H 11.82425 1.71199 8.48073
N 9.61339 2.71176 0.62141
C 8.85642 3.33855 1.54628
C 8.40726 4.59031 0.91740
C 8.82490 4.57387 -0.51089
C 9.33107 3.22052 -0.62196
C 7.72820 5.68799 1.68382
C 8.76531 5.60139 -1.60032
O 8.96588 5.29330 -2.82820
C 8.37348 6.96040 -1.19899
N 10.36701 0.39972 -1.19346
C 9.95601 1.27750 -2.12540
C 10.19190 0.74449 -3.51848
C 11.07228 -0.57717 -3.32944
C 11.11980 -0.63105 -1.78664
C 8.93677 0.40876 -4.32366
C 12.41144 -0.64881 -4.11314
C 13.38019 0.37927 -3.57466
N 11.45460 -0.96093 1.15242
C 11.81118 -1.92444 0.18362
C 12.31272 -3.10837 0.91109
C 12.19063 -2.75746 2.26404
C 11.63226 -1.45517 2.37251
C 12.75316 -4.32470 0.31725
C 12.39724 -3.19675 3.62530
O 12.92201 -4.17730 4.15148
C 11.65681 -2.18383 4.60108
C 12.60981 -1.82469 5.70802
O 13.64885 -1.18595 5.46510
O 12.03441 -2.10222 6.89219
C 12.93682 -1.75281 8.02153
H 7.67955 3.35426 3.30495
H 9.30589 3.02376 -2.71645
H 12.08117 -2.52055 -1.71988
H 9.58409 -0.30413 6.01847
H 8.51048 2.24719 5.49381
H 7.53543 -0.52035 4.91921
H 6.96390 0.72105 3.78492
H 6.59625 0.91733 5.47192
H 10.88274 2.41293 5.70720
H 11.94744 0.98151 5.95753
H 9.92783 0.94082 7.96428
H 10.24005 2.61649 7.68228
H 7.40791 5.34712 2.67610
H 6.79339 5.91329 1.15919
H 8.33020 6.59748 1.73961
H 7.39103 6.93045 -0.73385
H 8.47494 7.57130 -2.09809
H 9.07326 7.31469 -0.43388