%nproc=24
%mem=175gb
#p cam-b3lyp/Def2SVP td=(nstates=5)

TDDFT excited states in gaussian

0 1
Mg 31.52254 2.84180 2.39704
C 29.73675 0.03161 1.05805
C 29.90407 4.77492 0.09961
C 33.40325 5.25180 3.24687
C 33.78674 0.57378 3.76641
N 30.03509 2.35119 0.83529
C 29.38523 1.25975 0.46008
C 28.24159 1.51052 -0.55911
C 28.77730 2.88780 -1.18759
C 29.59712 3.39456 -0.00279
C 29.71517 2.68684 -2.36630
C 26.84954 1.70098 0.13941
C 25.64431 1.64162 -0.80167
H 24.40661 1.04213 -0.31056
N 31.30901 4.79577 2.12325
C 30.59763 5.40869 1.15396
C 30.77576 6.85203 1.37575
C 31.78321 7.03998 2.45483
C 32.22931 5.67366 2.63986
C 29.96845 7.89188 0.65435
C 32.27426 8.25097 3.18871
O 33.32518 8.21406 3.92154
C 31.54256 9.50363 2.95009
N 33.44488 2.92012 3.18496
C 34.00984 4.09507 3.51393
C 35.27449 3.88757 4.31268
C 35.31197 2.32698 4.66017
C 34.05330 1.86652 3.89263
C 36.57497 4.28460 3.61448
C 35.44537 1.94276 6.15925
C 34.19228 2.33807 6.90684
N 31.65127 0.69319 2.58400
C 32.69809 -0.05072 3.17125
C 32.39033 -1.47959 2.95671
C 31.18799 -1.46728 2.23372
C 30.78600 -0.12517 1.99573
C 33.20113 -2.57571 3.36567
C 30.17297 -2.28435 1.60855
O 29.93662 -3.49083 1.56092
C 29.25402 -1.34914 0.71004
C 27.81826 -1.68501 1.00719
O 27.33669 -1.46194 2.13189
O 27.19502 -2.00937 -0.14030
C 25.76525 -2.33988 0.10126
H 29.62479 5.43110 -0.72521
H 34.03364 6.04458 3.65625
H 34.39255 -0.19689 4.24780
H 28.15070 0.75876 -1.33395
H 27.95795 3.56859 -1.40336
H 29.96068 1.64550 -2.51284
H 30.60554 3.25644 -2.13422
H 29.29226 3.14209 -3.26642
H 26.76354 2.73764 0.48967
H 26.72224 0.99253 0.93473
H 25.90779 1.22955 -1.78337
H 25.32195 2.66314 -1.01755
H 29.42597 7.46124 -0.19633
H 30.67955 8.58910 0.19819
H 29.30618 8.44829 1.32103
H 31.56854 9.74055 1.88912
H 31.98521 10.23460 3.62953
H 30.48995 9.34937 3.21243
H 35.24566 4.45264 5.23625
H 36.16917 1.82489 4.18800
H 37.16448 5.03009 4.18088
H 36.33251 4.66047 2.62935
H 37.24795 3.45944 3.38773
H 36.26860 2.49444 6.61979
H 35.63606 0.88680 6.31918
H 34.35910 3.39705 7.12552
H 34.09254 1.75711 7.82149
H 33.31002 2.27009 6.25981
H 32.53399 -3.31709 3.78492
H 33.95511 -2.26548 4.08612
H 33.64227 -2.86046 2.40672
H 29.51192 -1.54039 -0.33231
H 25.59491 -3.34020 -0.30866
H 25.18711 -1.50814 -0.34338
H 25.44893 -2.47573 1.12885

