%nproc=24
%mem=175gb
#p cam-b3lyp/Def2SVP td=(nstates=5)

TDDFT excited states in gaussian

0 1
Mg 13.14718 1.18760 1.00199
C 13.90008 -0.95937 3.77737
C 12.81183 3.72944 3.25169
C 12.04353 2.99825 -1.35830
C 12.42460 -1.68029 -0.84160
N 13.35475 1.25239 3.20312
C 13.70431 0.38841 4.14423
C 13.93077 1.01916 5.54439
C 13.01756 2.32840 5.36889
C 13.08896 2.47444 3.85025
C 11.56589 2.10640 5.75965
C 15.43327 1.39611 5.79422
C 15.77981 1.72874 7.24716
H 17.09186 1.33934 7.75645
N 12.99364 3.16123 0.86139
C 12.88950 4.04372 1.87709
C 12.78240 5.36956 1.24872
C 12.66605 5.18304 -0.22315
C 12.53954 3.74130 -0.29698
C 12.87619 6.64925 2.02782
C 12.65582 6.14434 -1.37294
O 12.30518 5.78123 -2.55109
C 12.97836 7.54417 -1.06001
N 12.14767 0.74414 -0.76625
C 11.82852 1.71344 -1.64177
C 11.36662 1.13082 -2.95615
C 11.67320 -0.43600 -2.86297
C 12.20031 -0.50491 -1.41287
C 9.89106 1.34113 -3.29511
C 12.54057 -1.05192 -3.99478
C 13.95088 -0.51333 -3.91538
N 13.32645 -0.94379 1.30708
C 12.94067 -1.96854 0.41537
C 13.15162 -3.25409 1.11200
C 13.62755 -2.88425 2.37896
C 13.68844 -1.46758 2.47288
C 12.86306 -4.54384 0.58341
C 14.08221 -3.36988 3.66198
O 14.32601 -4.47957 4.13408
C 14.15905 -2.14223 4.66865
C 15.48281 -2.20700 5.37999
O 16.54553 -2.05207 4.75292
O 15.26891 -2.22353 6.70828
C 16.55270 -2.27636 7.45723
H 12.46059 4.54176 3.88860
H 11.75296 3.57265 -2.24097
H 12.31583 -2.62262 -1.38277
H 13.57088 0.42336 6.37461
H 13.46532 3.19054 5.85632
H 11.36199 1.06900 5.97958
H 10.97939 2.43579 4.91196
H 11.29367 2.76563 6.58889
H 15.64199 2.36594 5.32453
H 16.08475 0.62326 5.43518
H 14.99001 1.41644 7.94116
H 15.81703 2.81548 7.35498
H 12.79422 6.47010 3.10698
H 11.98654 7.23916 1.78207
H 13.76605 7.23067 1.77729
H 12.27389 7.92085 -0.32224
H 13.00748 8.05944 -2.02205
H 13.96989 7.57919 -0.59497
H 11.92669 1.54992 -3.78306
H 10.75051 -1.03408 -2.89070
H 9.73436 1.85577 -4.26189
H 9.43167 1.89782 -2.48914
H 9.28950 0.43414 -3.32165
H 12.15094 -0.75866 -4.97271
H 12.57275 -2.13612 -3.97287
H 13.87948 0.44374 -4.44074
H 14.64641 -1.18595 -4.41324
H 14.23271 -0.29959 -2.87781
H 13.69881 -5.18039 0.84195
H 12.70850 -4.50692 -0.49293
H 11.94041 -4.77379 1.12295
H 13.31887 -2.23110 5.35842
H 16.50227 -3.14837 8.11658
H 16.65853 -1.28613 7.93888
H 17.45343 -2.48926 6.89350

