%nproc=24
%mem=175gb
#p cam-b3lyp/Def2SVP td=(nstates=5)

TDDFT excited states in gaussian

0 1
Mg 0.00000 0.00000 0.00000
C -0.21700 -2.21800 2.80100
C -1.25500 2.44200 2.02600
C -0.24500 1.85000 -2.56400
C 0.14600 -2.82400 -2.03700
N -0.61700 -0.00900 2.12600
C -0.59400 -0.90800 3.10500
C -0.93600 -0.30900 4.50200
C -1.77300 0.96400 4.03200
C -1.15500 1.16800 2.66000
C -3.26300 0.68500 3.86300
C 0.34500 0.11000 5.29900
C 0.12400 0.39700 6.78700
H 1.16800 0.03300 7.73300
N -0.18500 1.96100 -0.15200
C -0.70300 2.80000 0.77700
C -0.62000 4.15600 0.19300
C -0.18700 4.01500 -1.22500
C -0.21400 2.58300 -1.38000
C -0.88700 5.40600 0.97400
C 0.18100 5.01300 -2.27700
O 0.30300 4.69000 -3.50800
C 0.31000 6.41400 -1.83700
N -0.26500 -0.41300 -2.02900
C -0.27900 0.56900 -2.93700
C -0.19600 0.02400 -4.33200
C 0.12400 -1.53300 -4.18000
C 0.08600 -1.63200 -2.63500
C -1.45100 0.20500 -5.19700
C 1.37300 -2.07000 -4.92300
C 2.62600 -1.49000 -4.30600
N 0.15000 -2.14400 0.30300
C 0.17300 -3.13600 -0.68800
C 0.17300 -4.43800 0.00400
C 0.13300 -4.11100 1.35800
C 0.08300 -2.69500 1.50200
C 0.14900 -5.71500 -0.62300
C 0.09600 -4.62900 2.71600
O 0.20800 -5.74700 3.22100
C -0.25500 -3.42800 3.70100
C 0.71700 -3.48200 4.84800
O 1.93100 -3.25500 4.66900
O 0.03800 -3.55600 6.00300
C 0.94300 -3.58300 7.18300
H -1.85900 3.22000 2.49700
H -0.21800 2.45300 -3.47400
H 0.27600 -3.74700 -2.60500
H -1.55400 -0.94900 5.13200
H -1.58500 1.83100 4.66500
H -3.48400 -0.37700 3.96900
H -3.51100 1.02700 2.85800
H -3.85200 1.30100 4.54300
H 0.66900 1.09600 4.96600
H 1.13000 -0.63900 5.18900
H -0.84400 0.02600 7.12500
H 0.06200 1.47700 6.92100
H -1.34400 5.18600 1.93800
H -1.65100 5.96300 0.43200
H 0.00700 6.02000 1.08400
H -0.63500 6.74400 -1.40500
H 0.66500 6.97000 -2.70400
H 1.04800 6.46600 -1.03600
H 0.60800 0.50100 -4.89100
H -0.69200 -2.15600 -4.54700
H -1.26700 0.74000 -6.12900
H -2.20400 0.71400 -4.59600
H -1.96700 -0.72000 -5.45300
H 1.35600 -1.75900 -5.96700
H 1.45200 -3.15700 -4.90200
H 2.71400 -0.52200 -4.79800
H 3.48700 -2.12100 -4.52900
H 2.49500 -1.30300 -3.24000
H 0.86700 -6.33300 -0.08400
H 0.40400 -5.64200 -1.68000
H -0.89100 -5.99900 -0.46300
H -1.28300 -3.58100 4.02800
H 0.69800 -4.47800 7.75500
H 0.83300 -2.61900 7.68000
H 2.00000 -3.75400 6.97600
Mg 7.87451 0.70972 0.60498
C 8.79402 3.16490 3.05562
C 7.59870 -1.52600 3.16624
C 7.50284 -1.57707 -1.56294
C 9.30789 2.78004 -1.80436
N 8.18158 0.91296 2.78596
C 8.46983 1.90909 3.60995
C 8.32885 1.55950 5.11577
C 8.51935 -0.03167 5.01208
C 8.03828 -0.24250 3.57792
C 9.97163 -0.47079 5.09813
C 6.91565 1.93284 5.68630
C 6.81086 1.90628 7.21275
H 5.95467 2.89060 7.86888
N 7.12489 -1.11919 0.78308
C 7.07342 -1.87213 1.90188
C 6.44816 -3.14271 1.50333
C 6.28496 -3.14151 0.02411
C 6.99916 -1.92811 -0.31890
C 5.99760 -4.17455 2.49617
C 5.61017 -4.08405 -0.92587
O 5.79607 -4.01170 -2.19199
C 4.79924 -5.15253 -0.32402
N 8.52217 0.51156 -1.36063
C 8.17740 -0.55898 -2.09752
C 8.52293 -0.35344 -3.55311
C 8.95275 1.18173 -3.68002
C 8.86298 1.59331 -2.19411
C 9.63870 -1.24126 -4.10376
C 8.19705 2.03954 -4.73156
C 6.75458 2.21466 -4.31443
N 8.70822 2.70252 0.56355
C 9.27699 3.36630 -0.54550
C 9.81038 4.65392 -0.05564
C 9.53321 4.63969 1.31966
C 8.89171 3.41994 1.66632
C 10.49371 5.62426 -0.84153
C 9.64697 5.37459 2.55889
O 10.02334 6.50462 2.86729
C 9.28694 4.39821 3.76032
C 8.32801 5.11557 4.67046
O 7.18819 5.41812 4.27564
O 8.83284 5.13209 5.91756
C 7.91241 5.82340 6.85922
H 7.70401 -2.35849 3.86249
H 7.30167 -2.28531 -2.37003
H 9.68190 3.52410 -2.51087
H 9.09379 1.98472 5.75438
H 7.87189 -0.55344 5.71202
H 10.64788 0.37112 5.09621
H 10.14211 -1.09499 4.23075
H 10.11912 -1.11702 5.96817
H 6.20578 1.13420 5.43531
H 6.59681 2.88883 5.31879
H 7.79634 1.87319 7.69305
H 6.33541 0.96894 7.51168
H 6.39916 -3.97229 3.49679
H 6.46107 -5.12311 2.20414
H 4.91290 -4.30061 2.50976
H 5.42374 -5.75344 0.33277
H 4.32635 -5.66789 -1.16227
H 4.02910 -4.69428 0.30645
H 7.66046 -0.53020 -4.18400
H 10.00803 1.28659 -3.97194
H 9.32690 -1.84156 -4.97925
H 9.98804 -1.88418 -3.30680
H 10.54753 -0.71558 -4.39169
H 8.18102 1.52775 -5.69695
H 8.64133 3.01617 -4.89216
H 6.28127 1.29479 -4.67065
H 6.32163 3.09162 -4.79144
H 6.66006 2.23250 -3.22245
H 10.10031 6.59039 -0.55461
H 10.36023 5.43980 -1.90545
H 11.52328 5.44575 -0.51997
H 10.21906 4.14383 4.26632
H 8.48664 6.62220 7.33867
H 7.50637 5.03109 7.51582
H 7.08711 6.38227 6.43380

