%nproc=24
%mem=175gb
#p cam-b3lyp/Def2SVP td=(nstates=5)

TDDFT excited states in gaussian

0 1
Mg 8.94052 0.81037 0.68468
C 8.64071 -0.84142 3.85655
C 7.69142 3.60464 2.19014
C 8.76811 2.15749 -2.18289
C 9.06748 -2.34482 -0.78988
N 8.28819 1.20647 2.76070
C 8.27778 0.52104 3.89402
C 7.93173 1.36270 5.15157
C 7.11497 2.54399 4.43301
C 7.75729 2.47845 3.04889
C 5.63187 2.24718 4.28585
C 9.21191 1.90803 5.87667
C 8.96580 2.47444 7.27680
H 9.99463 2.28389 8.29546
N 8.79130 2.72134 0.17037
C 8.27923 3.72598 0.91182
C 8.37957 4.93339 0.07741
C 8.84095 4.52948 -1.27858
C 8.79709 3.08643 -1.15295
C 8.12845 6.31405 0.61045
C 9.24151 5.31236 -2.49219
O 9.37966 4.75463 -3.63791
C 9.37622 6.76616 -2.31951
N 8.70772 0.02979 -1.22812
C 8.71786 0.83114 -2.30778
C 8.81219 0.02744 -3.58275
C 9.10825 -1.47524 -3.12247
C 9.04242 -1.28835 -1.59076
C 7.57277 0.05068 -4.47701
C 10.36125 -2.16344 -3.72996
C 11.61649 -1.49153 -3.22172
N 9.05548 -1.23030 1.38504
C 9.07213 -2.40259 0.59794
C 9.04033 -3.55103 1.52664
C 8.98369 -2.96249 2.79901
C 8.96004 -1.54734 2.67145
C 9.01608 -4.92389 1.15141
C 8.92781 -3.21673 4.22060
O 9.00677 -4.22078 4.92728
C 8.57560 -1.85655 4.96375
C 9.52788 -1.69735 6.11715
O 10.74429 -1.53605 5.91483
O 8.82277 -1.54436 7.25284
C 9.72338 -1.37172 8.42369
H 7.09825 4.46350 2.50542
H 8.81962 2.57127 -3.19265
H 9.20328 -3.36052 -1.16748
H 7.30030 0.86049 5.87465
H 7.31524 3.50422 4.90122
H 5.39164 1.23730 4.58347
H 5.40434 2.39723 3.23859
H 5.04284 2.98979 4.83165
H 9.55423 2.81623 5.36409
H 9.97482 1.15525 5.92036
H 7.98069 2.19270 7.66813
H 8.92521 3.56423 7.20807
H 7.64550 6.28347 1.59495
H 7.38263 6.77859 -0.04364
H 9.02797 6.93332 0.61643
H 8.43179 7.17750 -1.97121
H 9.75514 7.13980 -3.27276
H 10.11284 6.95808 -1.53137
H 9.63268 0.37440 -4.19879
H 8.28538 -2.15355 -3.39194
H 7.78192 0.40593 -5.50371
H 6.82298 0.67170 -4.00511
H 7.05556 -0.90233 -4.57429
H 10.36645 -2.04940 -4.81675
H 10.41623 -3.22588 -3.51736
H 11.72184 -0.62961 -3.88737
H 12.47007 -2.16124 -3.30505
H 11.47321 -1.10734 -2.20510
H 9.70867 -5.43753 1.80486
H 9.28394 -5.05485 0.10505
H 7.96483 -5.15868 1.33851
H 7.53866 -1.92334 5.29522
H 9.45165 -2.14197 9.15210
H 9.60615 -0.31754 8.73789
H 10.77739 -1.57884 8.28012

