%nproc=24
%mem=175gb
#p cam-b3lyp/Def2SVP td=(nstates=5)

TDDFT excited states in gaussian

0 1
Mg 0.00000 0.00000 0.00000
C -0.21700 -2.21800 2.80100
C -1.25500 2.44200 2.02600
C -0.24500 1.85000 -2.56400
C 0.14600 -2.82400 -2.03700
N -0.61700 -0.00900 2.12600
C -0.59400 -0.90800 3.10500
C -0.93600 -0.30900 4.50200
C -1.77300 0.96400 4.03200
C -1.15500 1.16800 2.66000
C -3.26300 0.68500 3.86300
C 0.34500 0.11000 5.29900
C 0.12400 0.39700 6.78700
H 1.16800 0.03300 7.73300
N -0.18500 1.96100 -0.15200
C -0.70300 2.80000 0.77700
C -0.62000 4.15600 0.19300
C -0.18700 4.01500 -1.22500
C -0.21400 2.58300 -1.38000
C -0.88700 5.40600 0.97400
C 0.18100 5.01300 -2.27700
O 0.30300 4.69000 -3.50800
C 0.31000 6.41400 -1.83700
N -0.26500 -0.41300 -2.02900
C -0.27900 0.56900 -2.93700
C -0.19600 0.02400 -4.33200
C 0.12400 -1.53300 -4.18000
C 0.08600 -1.63200 -2.63500
C -1.45100 0.20500 -5.19700
C 1.37300 -2.07000 -4.92300
C 2.62600 -1.49000 -4.30600
N 0.15000 -2.14400 0.30300
C 0.17300 -3.13600 -0.68800
C 0.17300 -4.43800 0.00400
C 0.13300 -4.11100 1.35800
C 0.08300 -2.69500 1.50200
C 0.14900 -5.71500 -0.62300
C 0.09600 -4.62900 2.71600
O 0.20800 -5.74700 3.22100
C -0.25500 -3.42800 3.70100
C 0.71700 -3.48200 4.84800
O 1.93100 -3.25500 4.66900
O 0.03800 -3.55600 6.00300
C 0.94300 -3.58300 7.18300
H -1.85900 3.22000 2.49700
H -0.21800 2.45300 -3.47400
H 0.27600 -3.74700 -2.60500
H -1.55400 -0.94900 5.13200
H -1.58500 1.83100 4.66500
H -3.48400 -0.37700 3.96900
H -3.51100 1.02700 2.85800
H -3.85200 1.30100 4.54300
H 0.66900 1.09600 4.96600
H 1.13000 -0.63900 5.18900
H -0.84400 0.02600 7.12500
H 0.06200 1.47700 6.92100
H -1.34400 5.18600 1.93800
H -1.65100 5.96300 0.43200
H 0.00700 6.02000 1.08400
H -0.63500 6.74400 -1.40500
H 0.66500 6.97000 -2.70400
H 1.04800 6.46600 -1.03600
H 0.60800 0.50100 -4.89100
H -0.69200 -2.15600 -4.54700
H -1.26700 0.74000 -6.12900
H -2.20400 0.71400 -4.59600
H -1.96700 -0.72000 -5.45300
H 1.35600 -1.75900 -5.96700
H 1.45200 -3.15700 -4.90200
H 2.71400 -0.52200 -4.79800
H 3.48700 -2.12100 -4.52900
H 2.49500 -1.30300 -3.24000
H 0.86700 -6.33300 -0.08400
H 0.40400 -5.64200 -1.68000
H -0.89100 -5.99900 -0.46300
H -1.28300 -3.58100 4.02800
H 0.69800 -4.47800 7.75500
H 0.83300 -2.61900 7.68000
H 2.00000 -3.75400 6.97600
Mg 7.88036 0.71199 0.58886
C 9.62052 -1.86122 -1.20822
C 9.68777 2.98038 -1.20622
C 6.69964 2.98547 2.46093
C 7.08049 -1.69269 2.98123
N 9.42377 0.46831 -0.97663
C 9.95987 -0.55634 -1.62241
C 10.85162 -0.16031 -2.82969
C 11.24092 1.32634 -2.36364
C 10.02840 1.63308 -1.48706
C 12.48516 1.37757 -1.49268
C 10.05599 -0.14849 -4.18203
C 10.92546 -0.07356 -5.43907
H 10.48852 -0.79432 -6.63158
N 7.77412 2.67471 0.31495
C 8.57282 3.43171 -0.46627
C 8.09641 4.81455 -0.30837
C 7.05699 4.83389 0.75650
C 7.15355 3.47255 1.24386
C 8.56735 5.94201 -1.18042
C 6.13822 5.90453 1.26224
O 5.48267 5.76827 2.35518
C 6.10001 7.15457 0.48929
N 7.19622 0.70787 2.55209
C 6.68538 1.82024 3.10851
C 6.00837 1.51140 4.42254
C 5.95968 -0.08436 4.51613
C 6.73060 -0.43720 3.22516
C 6.68951 2.07356 5.67010
C 4.56758 -0.73369 4.74658
C 3.69320 -0.52506 3.53113
N 8.10342 -1.42874 0.77748
C 7.72195 -2.23277 1.87388
C 8.18158 -3.60707 1.58671
C 8.82391 -3.50184 0.34380
C 8.78619 -2.15305 -0.10210
C 8.02782 -4.73208 2.44509
C 9.53458 -4.22309 -0.68743
O 9.79295 -5.40732 -0.89856
C 10.19274 -3.16949 -1.67898
C 9.88641 -3.60215 -3.08663
O 8.71560 -3.60646 -3.50590
O 11.03897 -3.73003 -3.76899
C 10.78652 -4.14698 -5.17406
H 10.35993 3.76766 -1.54866
H 6.18450 3.70979 3.09612
H 6.78412 -2.51822 3.63187
H 11.74671 -0.75894 -2.94898
H 11.28191 2.00748 -3.20964
H 12.83578 0.38988 -1.23252
H 12.19946 1.92403 -0.60341
H 13.26084 1.97658 -1.97832
H 9.51495 0.80237 -4.27086
H 9.40062 -0.99527 -4.24592
H 11.97939 -0.28856 -5.22469
H 10.92994 0.95890 -5.79688
H 9.45283 5.65772 -1.76223
H 8.92349 6.73474 -0.51363
H 7.77417 6.34354 -1.81470
H 7.09825 7.58375 0.44714
H 5.32132 7.76211 0.95449
H 5.81469 6.91951 -0.54219
H 4.99564 1.89523 4.43540
H 6.56241 -0.46188 5.35519
H 6.02691 2.72111 6.27484
H 7.57305 2.61629 5.36134
H 7.10162 1.32729 6.34718
H 4.05746 -0.24918 5.58275
H 4.61730 -1.79406 4.97046
H 3.29071 0.48043 3.68634
H 2.89852 -1.26768 3.49889
H 4.29315 -0.50202 2.61398
H 7.71847 -5.55991 1.82099
H 7.30388 -4.53499 3.23302
H 9.04532 -4.82026 2.83521
H 11.26481 -3.15657 -1.47879
H 11.36553 -5.05970 -5.34542
H 11.03697 -3.26730 -5.79631
H 9.78661 -4.48043 -5.42595

