%nproc=24
%mem=175gb
#p cam-b3lyp/Def2SVP td=(nstates=5)

TDDFT excited states in gaussian

0 1
Mg 0.00000 0.00000 0.00000
C -0.21700 -2.21800 2.80100
C -1.25500 2.44200 2.02600
C -0.24500 1.85000 -2.56400
C 0.14600 -2.82400 -2.03700
N -0.61700 -0.00900 2.12600
C -0.59400 -0.90800 3.10500
C -0.93600 -0.30900 4.50200
C -1.77300 0.96400 4.03200
C -1.15500 1.16800 2.66000
C -3.26300 0.68500 3.86300
C 0.34500 0.11000 5.29900
C 0.12400 0.39700 6.78700
H 1.16800 0.03300 7.73300
N -0.18500 1.96100 -0.15200
C -0.70300 2.80000 0.77700
C -0.62000 4.15600 0.19300
C -0.18700 4.01500 -1.22500
C -0.21400 2.58300 -1.38000
C -0.88700 5.40600 0.97400
C 0.18100 5.01300 -2.27700
O 0.30300 4.69000 -3.50800
C 0.31000 6.41400 -1.83700
N -0.26500 -0.41300 -2.02900
C -0.27900 0.56900 -2.93700
C -0.19600 0.02400 -4.33200
C 0.12400 -1.53300 -4.18000
C 0.08600 -1.63200 -2.63500
C -1.45100 0.20500 -5.19700
C 1.37300 -2.07000 -4.92300
C 2.62600 -1.49000 -4.30600
N 0.15000 -2.14400 0.30300
C 0.17300 -3.13600 -0.68800
C 0.17300 -4.43800 0.00400
C 0.13300 -4.11100 1.35800
C 0.08300 -2.69500 1.50200
C 0.14900 -5.71500 -0.62300
C 0.09600 -4.62900 2.71600
O 0.20800 -5.74700 3.22100
C -0.25500 -3.42800 3.70100
C 0.71700 -3.48200 4.84800
O 1.93100 -3.25500 4.66900
O 0.03800 -3.55600 6.00300
C 0.94300 -3.58300 7.18300
H -1.85900 3.22000 2.49700
H -0.21800 2.45300 -3.47400
H 0.27600 -3.74700 -2.60500
H -1.55400 -0.94900 5.13200
H -1.58500 1.83100 4.66500
H -3.48400 -0.37700 3.96900
H -3.51100 1.02700 2.85800
H -3.85200 1.30100 4.54300
H 0.66900 1.09600 4.96600
H 1.13000 -0.63900 5.18900
H -0.84400 0.02600 7.12500
H 0.06200 1.47700 6.92100
H -1.34400 5.18600 1.93800
H -1.65100 5.96300 0.43200
H 0.00700 6.02000 1.08400
H -0.63500 6.74400 -1.40500
H 0.66500 6.97000 -2.70400
H 1.04800 6.46600 -1.03600
H 0.60800 0.50100 -4.89100
H -0.69200 -2.15600 -4.54700
H -1.26700 0.74000 -6.12900
H -2.20400 0.71400 -4.59600
H -1.96700 -0.72000 -5.45300
H 1.35600 -1.75900 -5.96700
H 1.45200 -3.15700 -4.90200
H 2.71400 -0.52200 -4.79800
H 3.48700 -2.12100 -4.52900
H 2.49500 -1.30300 -3.24000
H 0.86700 -6.33300 -0.08400
H 0.40400 -5.64200 -1.68000
H -0.89100 -5.99900 -0.46300
H -1.28300 -3.58100 4.02800
H 0.69800 -4.47800 7.75500
H 0.83300 -2.61900 7.68000
H 2.00000 -3.75400 6.97600
Mg 13.14527 1.19087 0.99638
C 12.53581 3.19764 3.90851
C 12.16282 3.87008 -0.87210
C 13.23942 -0.68434 -1.56138
C 12.97154 -1.61112 3.06142
N 12.46102 3.21715 1.56052
C 12.32848 3.88690 2.69551
C 12.03096 5.40008 2.51845
C 11.38222 5.34741 1.05037
C 12.06683 4.08697 0.52570
C 9.88197 5.10576 1.06368
C 13.33523 6.27212 2.53914
C 13.10012 7.77750 2.68164
H 14.05992 8.56186 3.45367
N 13.23395 1.65229 -0.93178
C 12.81034 2.79276 -1.51587
C 13.07960 2.63269 -2.95325
C 13.54510 1.23931 -3.19096
C 13.33305 0.66300 -1.87834
C 12.96586 3.76402 -3.93334
C 14.07918 0.53777 -4.40290
O 14.19810 -0.73775 -4.44483
C 14.37093 1.37962 -5.57237
N 12.90078 -0.85778 0.74027
C 13.04408 -1.42512 -0.47032
C 13.09669 -2.93058 -0.36442
C 13.20220 -3.24783 1.19948
C 13.09788 -1.81118 1.75674
C 11.90397 -3.68118 -0.95638
C 14.39200 -4.13432 1.65906
C 15.69438 -3.39209 1.46336
N 13.00056 0.83185 3.12199
C 12.91512 -0.41890 3.77192
C 12.71689 -0.14920 5.21081
C 12.67741 1.25070 5.29572
C 12.81936 1.81335 3.99850
C 12.55193 -1.13269 6.22651
C 12.53728 2.38018 6.18640
O 12.47410 2.52135 7.40698
C 12.31262 3.68841 5.31206
C 13.23077 4.75935 5.83415
O 14.46463 4.63450 5.74132
O 12.50350 5.84432 6.15708
C 13.37120 6.93804 6.66963
H 11.65891 4.56808 -1.54125
H 13.37711 -1.37572 -2.39595
H 13.00605 -2.42966 3.78355
H 11.31876 5.80874 3.22522
H 11.67151 6.21255 0.45944
H 9.51730 4.89087 2.05715
H 9.71421 4.26122 0.40819
H 9.35994 5.95091 0.60593
H 13.79816 6.24760 1.54423
H 14.00558 5.93684 3.30650
H 12.07482 8.00656 2.99667
H 13.18607 8.23716 1.69404
H 12.44427 4.62426 -3.49593
H 12.30378 3.42509 -4.73748
H 13.92885 4.04669 -4.36394
H 13.46628 1.90031 -5.87723
H 14.82691 0.71234 -6.30633
H 15.09304 2.14935 -5.27793
H 13.97479 -3.32284 -0.86260
H 12.31896 -3.79173 1.56540
H 12.19221 -4.41844 -1.72931
H 11.21147 -2.95576 -1.36226
H 11.28629 -4.21063 -0.23295
H 14.45276 -5.03533 1.04372
H 14.31779 -4.45478 2.69288
H 15.92281 -3.56854 0.40801
H 16.46914 -3.80120 2.10866
H 15.55575 -2.31265 1.59462
H 13.15563 -0.81669 7.06686
H 12.84410 -2.12007 5.87508
H 11.47430 -1.05948 6.39572
H 11.26258 3.96829 5.40511
H 12.98551 7.21660 7.65519
H 13.36198 7.71881 5.88601
H 14.39976 6.69245 6.90671

