%nproc=24
%mem=175gb
#p cam-b3lyp/Def2SVP td=(nstates=5)

TDDFT excited states in gaussian

0 1
Mg 8.94135 0.80050 0.68553
C 9.12211 -2.62606 -0.36567
C 7.92957 -0.34429 3.73518
C 8.33961 3.80650 1.50365
C 8.84863 1.68448 -2.68429
N 8.60736 -1.24329 1.46245
C 8.76765 -2.47051 0.99065
C 8.61333 -3.59282 2.05185
C 7.69696 -2.80173 3.10699
C 8.12451 -1.37267 2.77887
C 6.20884 -2.93114 2.82755
C 9.98727 -4.01062 2.68411
C 9.95339 -5.30646 3.49739
H 11.12353 -6.17949 3.46475
N 8.71493 1.62309 2.47736
C 8.31891 1.00751 3.61117
C 8.29188 2.05142 4.64737
C 8.54506 3.36540 3.99617
C 8.52187 2.97664 2.60031
C 8.12226 1.74483 6.10704
C 8.75837 4.74587 4.53930
O 8.72366 5.77992 3.78276
C 8.91612 4.85989 5.99656
N 8.42504 2.48557 -0.41734
C 8.27242 3.68145 0.17807
C 8.17522 4.79039 -0.84232
C 8.53834 4.11563 -2.24604
C 8.70279 2.65005 -1.78731
C 6.81569 5.48118 -0.94657
C 9.68671 4.76738 -3.06407
C 11.00335 4.57961 -2.34533
N 9.16191 -0.23144 -1.19981
C 9.06141 0.32515 -2.49371
C 9.17030 -0.78970 -3.45688
C 9.30457 -1.92931 -2.64957
C 9.26076 -1.55368 -1.27973
C 9.09132 -0.67584 -4.87354
C 9.46274 -3.36586 -2.64464
O 9.64771 -4.22240 -3.50827
C 9.22471 -3.89538 -1.16500
C 10.33905 -4.84770 -0.82758
O 11.51121 -4.44225 -0.73680
O 9.81208 -6.02868 -0.45612
C 10.87794 -7.00319 -0.10102
H 7.38959 -0.58367 4.65170
H 8.23873 4.87065 1.72922
H 8.92721 1.88866 -3.75425
H 8.09794 -4.47977 1.70334
H 7.96430 -3.05439 4.12976
H 6.01688 -3.43807 1.89358
H 5.82669 -1.91926 2.79432
H 5.70764 -3.41504 3.67074
H 10.24801 -3.29790 3.47707
H 10.74880 -4.07614 1.93151
H 9.03837 -5.88327 3.31581
H 9.90196 -5.04917 4.55814
H 7.79244 0.71061 6.26517
H 7.28636 2.35451 6.46681
H 9.01194 1.98347 6.69372
H 8.03423 4.45586 6.48798
H 9.14745 5.91021 6.18417
H 9.76242 4.23682 6.30666
H 8.89373 5.57318 -0.63237
H 7.68499 4.13390 -2.93979
H 6.86818 6.57455 -0.78572
H 6.14457 5.02349 -0.23196
H 6.29061 5.32763 -1.88780
H 9.52876 5.84558 -3.14586
H 9.77392 4.37725 -4.07262
H 11.00688 5.39786 -1.61900
H 11.83539 4.66598 -3.04123
H 11.01379 3.63907 -1.78236
H 9.87454 -1.30161 -5.28032
H 9.19935 0.35767 -5.19597
H 8.08023 -1.05535 -5.04363
H 8.24926 -4.38289 -1.14447
H 10.71923 -7.89051 -0.72164
H 10.80818 -7.13603 0.99499
H 11.89869 -6.74525 -0.35790

