%nproc=24
%mem=175gb
#p cam-b3lyp/Def2SVP td=(nstates=5)

TDDFT excited states in gaussian

0 1
Mg 0.00000 0.00000 0.00000
C -0.21700 -2.21800 2.80100
C -1.25500 2.44200 2.02600
C -0.24500 1.85000 -2.56400
C 0.14600 -2.82400 -2.03700
N -0.61700 -0.00900 2.12600
C -0.59400 -0.90800 3.10500
C -0.93600 -0.30900 4.50200
C -1.77300 0.96400 4.03200
C -1.15500 1.16800 2.66000
C -3.26300 0.68500 3.86300
C 0.34500 0.11000 5.29900
C 0.12400 0.39700 6.78700
H 1.16800 0.03300 7.73300
N -0.18500 1.96100 -0.15200
C -0.70300 2.80000 0.77700
C -0.62000 4.15600 0.19300
C -0.18700 4.01500 -1.22500
C -0.21400 2.58300 -1.38000
C -0.88700 5.40600 0.97400
C 0.18100 5.01300 -2.27700
O 0.30300 4.69000 -3.50800
C 0.31000 6.41400 -1.83700
N -0.26500 -0.41300 -2.02900
C -0.27900 0.56900 -2.93700
C -0.19600 0.02400 -4.33200
C 0.12400 -1.53300 -4.18000
C 0.08600 -1.63200 -2.63500
C -1.45100 0.20500 -5.19700
C 1.37300 -2.07000 -4.92300
C 2.62600 -1.49000 -4.30600
N 0.15000 -2.14400 0.30300
C 0.17300 -3.13600 -0.68800
C 0.17300 -4.43800 0.00400
C 0.13300 -4.11100 1.35800
C 0.08300 -2.69500 1.50200
C 0.14900 -5.71500 -0.62300
C 0.09600 -4.62900 2.71600
O 0.20800 -5.74700 3.22100
C -0.25500 -3.42800 3.70100
C 0.71700 -3.48200 4.84800
O 1.93100 -3.25500 4.66900
O 0.03800 -3.55600 6.00300
C 0.94300 -3.58300 7.18300
H -1.85900 3.22000 2.49700
H -0.21800 2.45300 -3.47400
H 0.27600 -3.74700 -2.60500
H -1.55400 -0.94900 5.13200
H -1.58500 1.83100 4.66500
H -3.48400 -0.37700 3.96900
H -3.51100 1.02700 2.85800
H -3.85200 1.30100 4.54300
H 0.66900 1.09600 4.96600
H 1.13000 -0.63900 5.18900
H -0.84400 0.02600 7.12500
H 0.06200 1.47700 6.92100
H -1.34400 5.18600 1.93800
H -1.65100 5.96300 0.43200
H 0.00700 6.02000 1.08400
H -0.63500 6.74400 -1.40500
H 0.66500 6.97000 -2.70400
H 1.04800 6.46600 -1.03600
H 0.60800 0.50100 -4.89100
H -0.69200 -2.15600 -4.54700
H -1.26700 0.74000 -6.12900
H -2.20400 0.71400 -4.59600
H -1.96700 -0.72000 -5.45300
H 1.35600 -1.75900 -5.96700
H 1.45200 -3.15700 -4.90200
H 2.71400 -0.52200 -4.79800
H 3.48700 -2.12100 -4.52900
H 2.49500 -1.30300 -3.24000
H 0.86700 -6.33300 -0.08400
H 0.40400 -5.64200 -1.68000
H -0.89100 -5.99900 -0.46300
H -1.28300 -3.58100 4.02800
H 0.69800 -4.47800 7.75500
H 0.83300 -2.61900 7.68000
H 2.00000 -3.75400 6.97600
Mg 15.76935 1.41288 1.20544
C 13.08443 1.84167 3.54776
C 17.87543 2.53671 3.64183
C 18.08452 1.47562 -0.96331
C 13.37650 1.42867 -1.32828
N 15.40755 2.07264 3.28536
C 14.35467 2.13419 4.08661
C 14.69146 2.45372 5.56784
C 16.09592 3.19829 5.33989
C 16.51042 2.54106 4.02501
C 15.95340 4.69256 5.10285
C 14.86272 1.15727 6.43496
C 14.88621 1.39320 7.94676
H 14.27968 0.38984 8.81731
N 17.74048 1.45600 1.43201
C 18.42735 1.92573 2.49448
C 19.84997 1.75155 2.16281
C 19.94963 1.29288 0.75058
C 18.56618 1.41298 0.33616
C 20.94873 1.93838 3.16841
C 21.10178 0.83558 -0.09182
O 20.99844 0.71054 -1.36324
C 22.38057 0.62834 0.60333
N 15.76121 1.65912 -0.85894
C 16.90195 1.59260 -1.56760
C 16.62020 1.52223 -3.04951
C 15.04014 1.31062 -3.17684
C 14.65331 1.38797 -1.68360
C 17.03681 2.74625 -3.86473
C 14.55831 0.08654 -4.00276
C 14.92823 -1.19456 -3.29049
N 13.61115 1.41326 1.10427
C 12.81179 1.44628 -0.05935
C 11.40556 1.55027 0.38127
C 11.48655 1.59409 1.78128
C 12.84841 1.54281 2.18404
C 10.27059 1.64021 -0.47305
C 10.73025 1.68277 3.00963
O 9.53391 1.66562 3.29633
C 11.73803 1.97452 4.20363
C 11.41064 1.03139 5.32873
O 11.57019 -0.19443 5.19259
O 11.17210 1.74335 6.44523
C 10.85351 0.85137 7.59182
H 18.58816 3.08904 4.25489
H 18.83757 1.38878 -1.74998
H 12.56543 1.34030 -2.05425
H 13.99268 3.12024 6.05899
H 16.80429 2.95519 6.12760
H 14.91918 4.98877 5.00908
H 16.49027 4.89747 4.18588
H 16.47315 5.24995 5.88739
H 15.87625 0.76139 6.29082
H 14.10730 0.43496 6.19365
H 14.53300 2.39689 8.21284
H 15.92529 1.37646 8.28449
H 20.58363 2.43589 4.07538
H 21.66035 2.65004 2.73597
H 21.47356 1.00823 3.39654
H 22.68440 1.55500 1.08443
H 23.05815 0.21742 -0.14761
H 22.22947 -0.10619 1.40223
H 17.12542 0.67642 -3.49948
H 14.55342 2.16363 -3.67214
H 17.73338 2.50478 -4.68969
H 17.47944 3.46943 -3.19269
H 16.21546 3.31061 -4.30300
H 15.06393 0.06037 -4.97117
H 13.49091 0.08950 -4.19675
H 15.96774 -1.35353 -3.59253
H 14.29186 -2.01346 -3.61984
H 14.91827 -1.05721 -2.20298
H 9.51645 0.98423 -0.05897
H 10.51994 1.36497 -1.49571
H 10.03965 2.70469 -0.37914
H 11.60914 3.01803 4.49355
H 9.88484 1.17263 7.98699
H 11.72265 0.91832 8.27290
H 10.65807 -0.19242 7.37560

