%nproc=24
%mem=175gb
#p cam-b3lyp/Def2SVP td=(nstates=5)

TDDFT excited states in gaussian

0 1
Mg 0.00000 0.00000 0.00000
C -0.21700 -2.21800 2.80100
C -1.25500 2.44200 2.02600
C -0.24500 1.85000 -2.56400
C 0.14600 -2.82400 -2.03700
N -0.61700 -0.00900 2.12600
C -0.59400 -0.90800 3.10500
C -0.93600 -0.30900 4.50200
C -1.77300 0.96400 4.03200
C -1.15500 1.16800 2.66000
C -3.26300 0.68500 3.86300
C 0.34500 0.11000 5.29900
C 0.12400 0.39700 6.78700
H 1.16800 0.03300 7.73300
N -0.18500 1.96100 -0.15200
C -0.70300 2.80000 0.77700
C -0.62000 4.15600 0.19300
C -0.18700 4.01500 -1.22500
C -0.21400 2.58300 -1.38000
C -0.88700 5.40600 0.97400
C 0.18100 5.01300 -2.27700
O 0.30300 4.69000 -3.50800
C 0.31000 6.41400 -1.83700
N -0.26500 -0.41300 -2.02900
C -0.27900 0.56900 -2.93700
C -0.19600 0.02400 -4.33200
C 0.12400 -1.53300 -4.18000
C 0.08600 -1.63200 -2.63500
C -1.45100 0.20500 -5.19700
C 1.37300 -2.07000 -4.92300
C 2.62600 -1.49000 -4.30600
N 0.15000 -2.14400 0.30300
C 0.17300 -3.13600 -0.68800
C 0.17300 -4.43800 0.00400
C 0.13300 -4.11100 1.35800
C 0.08300 -2.69500 1.50200
C 0.14900 -5.71500 -0.62300
C 0.09600 -4.62900 2.71600
O 0.20800 -5.74700 3.22100
C -0.25500 -3.42800 3.70100
C 0.71700 -3.48200 4.84800
O 1.93100 -3.25500 4.66900
O 0.03800 -3.55600 6.00300
C 0.94300 -3.58300 7.18300
H -1.85900 3.22000 2.49700
H -0.21800 2.45300 -3.47400
H 0.27600 -3.74700 -2.60500
H -1.55400 -0.94900 5.13200
H -1.58500 1.83100 4.66500
H -3.48400 -0.37700 3.96900
H -3.51100 1.02700 2.85800
H -3.85200 1.30100 4.54300
H 0.66900 1.09600 4.96600
H 1.13000 -0.63900 5.18900
H -0.84400 0.02600 7.12500
H 0.06200 1.47700 6.92100
H -1.34400 5.18600 1.93800
H -1.65100 5.96300 0.43200
H 0.00700 6.02000 1.08400
H -0.63500 6.74400 -1.40500
H 0.66500 6.97000 -2.70400
H 1.04800 6.46600 -1.03600
H 0.60800 0.50100 -4.89100
H -0.69200 -2.15600 -4.54700
H -1.26700 0.74000 -6.12900
H -2.20400 0.71400 -4.59600
H -1.96700 -0.72000 -5.45300
H 1.35600 -1.75900 -5.96700
H 1.45200 -3.15700 -4.90200
H 2.71400 -0.52200 -4.79800
H 3.48700 -2.12100 -4.52900
H 2.49500 -1.30300 -3.24000
H 0.86700 -6.33300 -0.08400
H 0.40400 -5.64200 -1.68000
H -0.89100 -5.99900 -0.46300
H -1.28300 -3.58100 4.02800
H 0.69800 -4.47800 7.75500
H 0.83300 -2.61900 7.68000
H 2.00000 -3.75400 6.97600
Mg 10.51738 0.95461 0.79870
C 9.94827 2.15857 4.13121
C 9.44579 3.99287 -0.32170
C 10.57810 -0.22152 -2.14757
C 10.44018 -2.27670 2.10192
N 9.81483 2.76097 1.86442
C 9.69978 3.12369 3.13310
C 9.37362 4.62639 3.34538
C 8.68953 4.92711 1.92396
C 9.38109 3.85242 1.08762
C 7.19415 4.65713 1.90661
C 10.66379 5.49397 3.55696
C 10.40809 6.91085 4.07543
H 11.37403 7.49879 4.99942
N 10.55066 1.88381 -0.95460
C 10.09436 3.12434 -1.22688
C 10.33035 3.33344 -2.66381
C 10.81218 2.05374 -3.25112
C 10.64213 1.16401 -2.11995
C 10.17409 4.67056 -3.32796
C 11.32719 1.68816 -4.61029
O 11.46556 0.46625 -4.97168
C 11.57619 2.80105 -5.53817
N 10.29962 -0.97040 0.04423
C 10.42190 -1.21489 -1.27228
C 10.50136 -2.69773 -1.54664
C 10.65081 -3.39234 -0.11389
C 10.53725 -2.14251 0.78634
C 9.30654 -3.30294 -2.28320
C 11.86578 -4.33924 0.08587
C 13.15077 -3.54346 0.05559
N 10.43136 0.07413 2.76984
C 10.38224 -1.30068 3.08854
C 10.21552 -1.40246 4.55287
C 10.15563 -0.06909 4.98533
C 10.25621 0.80205 3.86708
C 10.09171 -2.61139 5.29400
C 10.01951 0.79947 6.13241
O 9.98443 0.63059 7.35060
C 9.75215 2.27909 5.61702
C 10.66564 3.20589 6.37141
O 11.89866 3.13502 6.22563
O 9.92925 4.16004 6.96948
C 10.79169 5.11016 7.72133
H 8.91422 4.82445 -0.78517
H 10.70613 -0.67993 -3.13090
H 10.50580 -3.24842 2.59601
H 8.67272 4.83041 4.14594
H 8.95007 5.91832 1.56203
H 6.85780 4.19356 2.82209
H 7.02377 3.99915 1.06454
H 6.64737 5.57811 1.68490
H 11.10218 5.72827 2.57835
H 11.35832 4.99273 4.20273
H 9.38739 7.03178 4.45817
H 10.46205 7.60389 3.23234
H 9.64975 5.38308 -2.67928
H 9.49776 4.52838 -4.17781
H 11.12140 5.07254 -3.69359
H 10.65598 3.36144 -5.68519
H 12.02447 2.34783 -6.42447
H 12.29291 3.48867 -5.07545
H 11.37300 -2.93424 -2.14447
H 9.78581 -4.02938 0.12229
H 9.58731 -3.81786 -3.22133
H 8.59257 -2.51453 -2.48116
H 8.71563 -4.00930 -1.70261
H 11.92573 -5.05693 -0.73600
H 11.82246 -4.90876 1.00824
H 13.35571 -3.44632 -1.01476
H 13.94782 -4.08349 0.56265
H 12.99809 -2.53406 0.45492
H 10.71095 -2.50170 6.17434
H 10.39092 -3.47343 4.70142
H 9.01759 -2.60616 5.49770
H 8.70038 2.50401 5.79803
H 10.42619 5.12584 8.75276
H 10.75043 6.06119 7.15779
H 11.82965 4.83571 7.86892

