%nproc=24
%mem=175gb
#p cam-b3lyp/Def2SVP td=(nstates=5)

TDDFT excited states in gaussian

0 1
Mg 0.00000 0.00000 0.00000
C -0.21700 -2.21800 2.80100
C -1.25500 2.44200 2.02600
C -0.24500 1.85000 -2.56400
C 0.14600 -2.82400 -2.03700
N -0.61700 -0.00900 2.12600
C -0.59400 -0.90800 3.10500
C -0.93600 -0.30900 4.50200
C -1.77300 0.96400 4.03200
C -1.15500 1.16800 2.66000
C -3.26300 0.68500 3.86300
C 0.34500 0.11000 5.29900
C 0.12400 0.39700 6.78700
H 1.16800 0.03300 7.73300
N -0.18500 1.96100 -0.15200
C -0.70300 2.80000 0.77700
C -0.62000 4.15600 0.19300
C -0.18700 4.01500 -1.22500
C -0.21400 2.58300 -1.38000
C -0.88700 5.40600 0.97400
C 0.18100 5.01300 -2.27700
O 0.30300 4.69000 -3.50800
C 0.31000 6.41400 -1.83700
N -0.26500 -0.41300 -2.02900
C -0.27900 0.56900 -2.93700
C -0.19600 0.02400 -4.33200
C 0.12400 -1.53300 -4.18000
C 0.08600 -1.63200 -2.63500
C -1.45100 0.20500 -5.19700
C 1.37300 -2.07000 -4.92300
C 2.62600 -1.49000 -4.30600
N 0.15000 -2.14400 0.30300
C 0.17300 -3.13600 -0.68800
C 0.17300 -4.43800 0.00400
C 0.13300 -4.11100 1.35800
C 0.08300 -2.69500 1.50200
C 0.14900 -5.71500 -0.62300
C 0.09600 -4.62900 2.71600
O 0.20800 -5.74700 3.22100
C -0.25500 -3.42800 3.70100
C 0.71700 -3.48200 4.84800
O 1.93100 -3.25500 4.66900
O 0.03800 -3.55600 6.00300
C 0.94300 -3.58300 7.18300
H -1.85900 3.22000 2.49700
H -0.21800 2.45300 -3.47400
H 0.27600 -3.74700 -2.60500
H -1.55400 -0.94900 5.13200
H -1.58500 1.83100 4.66500
H -3.48400 -0.37700 3.96900
H -3.51100 1.02700 2.85800
H -3.85200 1.30100 4.54300
H 0.66900 1.09600 4.96600
H 1.13000 -0.63900 5.18900
H -0.84400 0.02600 7.12500
H 0.06200 1.47700 6.92100
H -1.34400 5.18600 1.93800
H -1.65100 5.96300 0.43200
H 0.00700 6.02000 1.08400
H -0.63500 6.74400 -1.40500
H 0.66500 6.97000 -2.70400
H 1.04800 6.46600 -1.03600
H 0.60800 0.50100 -4.89100
H -0.69200 -2.15600 -4.54700
H -1.26700 0.74000 -6.12900
H -2.20400 0.71400 -4.59600
H -1.96700 -0.72000 -5.45300
H 1.35600 -1.75900 -5.96700
H 1.45200 -3.15700 -4.90200
H 2.71400 -0.52200 -4.79800
H 3.48700 -2.12100 -4.52900
H 2.49500 -1.30300 -3.24000
H 0.86700 -6.33300 -0.08400
H 0.40400 -5.64200 -1.68000
H -0.89100 -5.99900 -0.46300
H -1.28300 -3.58100 4.02800
H 0.69800 -4.47800 7.75500
H 0.83300 -2.61900 7.68000
H 2.00000 -3.75400 6.97600
Mg 13.14490 1.18774 1.00499
C 12.92406 -1.03498 3.81387
C 11.88821 3.62931 3.02837
C 12.90305 3.04658 -1.55502
C 13.28486 -1.63191 -1.03846
N 12.52565 1.17644 3.12835
C 12.54464 0.29026 4.11256
C 12.21099 0.87513 5.51119
C 11.36633 2.15724 5.04043
C 11.98403 2.36305 3.65885
C 9.88467 1.86983 4.86318
C 13.49719 1.29482 6.30590
C 13.26955 1.58418 7.79123
H 14.31916 1.22205 8.73973
N 12.96210 3.15868 0.86164
C 12.45097 3.99791 1.78669
C 12.52074 5.34200 1.19279
C 12.96234 5.20735 -0.22198
C 12.93908 3.76588 -0.36933
C 12.26192 6.59380 1.97983
C 13.33070 6.21051 -1.27278
O 13.45495 5.88017 -2.50496
C 13.45011 7.60795 -0.83188
N 12.88709 0.77673 -1.01663
C 12.86734 1.76667 -1.92633
C 12.94853 1.21836 -3.33102
C 13.27198 -0.33914 -3.16623
C 13.23179 -0.44435 -1.62587
C 11.69278 1.38946 -4.18554
C 14.52229 -0.88100 -3.91174
C 15.77799 -0.29666 -3.30581
N 13.29849 -0.94607 1.30718
C 13.31561 -1.94924 0.31348
C 13.31534 -3.25204 1.01000
C 13.27451 -2.91394 2.37107
C 13.23060 -1.50057 2.51233
C 13.30164 -4.53019 0.38369
C 13.24784 -3.43152 3.72018
O 13.35242 -4.54905 4.22409
C 12.89206 -2.24091 4.71127
C 13.86317 -2.28608 5.85906
O 15.07354 -2.07035 5.67178
O 13.17705 -2.36035 7.01409
C 14.09665 -2.39642 8.18236
H 11.29006 4.40413 3.50874
H 12.93085 3.64343 -2.46961
H 13.42660 -2.55632 -1.60242
H 11.59929 0.23608 6.13666
H 11.56294 3.01549 5.67770
H 9.66273 0.81834 4.96926
H 9.63615 2.21029 3.86650
H 9.29635 2.48726 5.54801
H 13.81855 2.28845 5.96801
H 14.27025 0.55944 6.19535
H 12.29541 1.21834 8.13787
H 13.21391 2.66670 7.92933
H 11.79747 6.37118 2.94840
H 11.49845 7.16102 1.43647
H 13.15348 7.21513 2.08817
H 12.50707 7.93150 -0.39777
H 13.80678 8.15996 -1.70363
H 14.19852 7.66010 -0.03327
H 13.75317 1.68784 -3.88351
H 12.45298 -0.96774 -3.54562
H 11.87862 1.93451 -5.13024
H 10.94393 1.89880 -3.59365
H 11.18600 0.46359 -4.45226
H 14.50618 -0.56479 -4.95764
H 14.59460 -1.96345 -3.90364
H 15.86022 0.67651 -3.79903
H 16.63832 -0.92515 -3.52688
H 15.64845 -0.11258 -2.23297
H 14.01251 -5.14636 0.91801
H 13.55197 -4.45801 -0.67267
H 12.25704 -4.81261 0.53963
H 11.86228 -2.38523 5.04036
H 13.84806 -3.29399 8.75704
H 13.97183 -1.42202 8.69100
H 15.15040 -2.55612 7.98600
158

Mg 0.00000 0.00000 0.00000
C -0.21700 -2.21800 2.80100
C -1.25500 2.44200 2.02600
C -0.24500 1.85000 -2.56400
C 0.14600 -2.82400 -2.03700
N -0.61700 -0.00900 2.12600
C -0.59400 -0.90800 3.10500
C -0.93600 -0.30900 4.50200
C -1.77300 0.96400 4.03200
C -1.15500 1.16800 2.66000
C -3.26300 0.68500 3.86300
C 0.34500 0.11000 5.29900
C 0.12400 0.39700 6.78700
H 1.16800 0.03300 7.73300
N -0.18500 1.96100 -0.15200
C -0.70300 2.80000 0.77700
C -0.62000 4.15600 0.19300
C -0.18700 4.01500 -1.22500
C -0.21400 2.58300 -1.38000
C -0.88700 5.40600 0.97400
C 0.18100 5.01300 -2.27700
O 0.30300 4.69000 -3.50800
C 0.31000 6.41400 -1.83700
N -0.26500 -0.41300 -2.02900
C -0.27900 0.56900 -2.93700
C -0.19600 0.02400 -4.33200
C 0.12400 -1.53300 -4.18000
C 0.08600 -1.63200 -2.63500
C -1.45100 0.20500 -5.19700
C 1.37300 -2.07000 -4.92300
C 2.62600 -1.49000 -4.30600
N 0.15000 -2.14400 0.30300
C 0.17300 -3.13600 -0.68800
C 0.17300 -4.43800 0.00400
C 0.13300 -4.11100 1.35800
C 0.08300 -2.69500 1.50200
C 0.14900 -5.71500 -0.62300
C 0.09600 -4.62900 2.71600
O 0.20800 -5.74700 3.22100
C -0.25500 -3.42800 3.70100
C 0.71700 -3.48200 4.84800
O 1.93100 -3.25500 4.66900
O 0.03800 -3.55600 6.00300
C 0.94300 -3.58300 7.18300
H -1.85900 3.22000 2.49700
H -0.21800 2.45300 -3.47400
H 0.27600 -3.74700 -2.60500
H -1.55400 -0.94900 5.13200
H -1.58500 1.83100 4.66500
H -3.48400 -0.37700 3.96900
H -3.51100 1.02700 2.85800
H -3.85200 1.30100 4.54300
H 0.66900 1.09600 4.96600
H 1.13000 -0.63900 5.18900
H -0.84400 0.02600 7.12500
H 0.06200 1.47700 6.92100
H -1.34400 5.18600 1.93800
H -1.65100 5.96300 0.43200
H 0.00700 6.02000 1.08400
H -0.63500 6.74400 -1.40500
H 0.66500 6.97000 -2.70400
H 1.04800 6.46600 -1.03600
H 0.60800 0.50100 -4.89100
H -0.69200 -2.15600 -4.54700
H -1.26700 0.74000 -6.12900
H -2.20400 0.71400 -4.59600
H -1.96700 -0.72000 -5.45300
H 1.35600 -1.75900 -5.96700
H 1.45200 -3.15700 -4.90200
H 2.71400 -0.52200 -4.79800
H 3.48700 -2.12100 -4.52900
H 2.49500 -1.30300 -3.24000
H 0.86700 -6.33300 -0.08400
H 0.40400 -5.64200 -1.68000
H -0.89100 -5.99900 -0.46300
H -1.28300 -3.58100 4.02800
H 0.69800 -4.47800 7.75500
H 0.83300 -2.61900 7.68000
H 2.00000 -3.75400 6.97600
Mg 13.14535 1.18773 1.00456
C 13.08637 -1.01954 3.83360
C 12.03495 3.64810 3.08979
C 12.75574 3.03566 -1.54511
C 13.13742 -1.64284 -1.02855
N 12.66072 1.19127 3.16265
C 12.73550 0.30982 4.14845
C 12.49440 0.90391 5.56213
C 11.63056 2.18968 5.13850
C 12.16159 2.38430 3.71977
C 10.13877 1.91197 5.05621
C 13.83083 1.31832 6.27222
C 13.69896 1.61658 7.76735
H 14.80362 1.25164 8.64997
N 12.96732 3.15920 0.86244
C 12.52106 4.00658 1.81326
C 12.56251 5.34721 1.20898
C 12.91339 5.20247 -0.23000
C 12.87111 3.76050 -0.36789
C 12.36218 6.60467 2.00402
C 13.22179 6.19781 -1.30721
O 13.26611 5.86055 -2.54298
C 13.37818 7.59651 -0.88216
N 12.75820 0.76865 -0.99465
C 12.68805 1.75423 -1.90659
C 12.67707 1.19847 -3.31066
C 12.99963 -0.36047 -3.15819
C 13.05562 -0.45783 -1.61780
C 11.37129 1.37431 -4.08552
C 14.19690 -0.91488 -3.97785
C 15.49215 -0.33653 -3.45513
N 13.30311 -0.94561 1.30791
C 13.25092 -1.95374 0.32047
C 13.28556 -3.25307 1.02259
C 13.33266 -2.90801 2.38171
C 13.30733 -1.49369 2.51789
C 13.22383 -4.53415 0.40522
C 13.38731 -3.41876 3.73258
O 13.51575 -4.53452 4.23489
C 13.10263 -2.22079 4.73768
C 14.14363 -2.26725 5.82243
O 15.34127 -2.06107 5.55834
O 13.53097 -2.33096 7.01865
C 14.52191 -2.36784 8.12703
H 11.47346 4.42951 3.60264
H 12.73006 3.62780 -2.46282
H 13.23714 -2.57099 -1.59535
H 11.91888 0.27231 6.22819
H 11.87267 3.04962 5.75757
H 9.91679 0.86262 5.18164
H 9.83042 2.24929 4.07530
H 9.59887 2.53693 5.77333
H 14.13707 2.30796 5.90950
H 14.59039 0.57691 6.11726
H 12.74607 1.25940 8.17644
H 13.65948 2.70013 7.90288
H 11.95802 6.39012 3.00102
H 11.56995 7.17464 1.50666
H 13.26300 7.22015 2.05282
H 12.46651 7.92890 -0.39141
H 13.68311 8.14168 -1.77753
H 14.17564 7.64725 -0.13243
H 13.44857 1.65948 -3.91510
H 12.15415 -0.98507 -3.48202
H 11.50109 1.91338 -5.04292
H 10.66460 1.89188 -3.45049
H 10.84246 0.45078 -4.31492
H 14.11724 -0.60370 -5.02235
H 14.26221 -1.99776 -3.96852
H 15.54983 0.63359 -3.95774
H 16.33259 -0.97222 -3.72644
H 15.43154 -0.14627 -2.37727
H 13.96267 -5.15274 0.89712
H 13.40776 -4.46894 -0.66515
H 12.18920 -4.80835 0.62797
H 12.09461 -2.35616 5.13157
H 14.30383 -3.26079 8.72098
H 14.43594 -1.39009 8.63729
H 15.56012 -2.53601 7.86572
158

Mg 0.00000 0.00000 0.00000
C -0.21700 -2.21800 2.80100
C -1.25500 2.44200 2.02600
C -0.24500 1.85000 -2.56400
C 0.14600 -2.82400 -2.03700
N -0.61700 -0.00900 2.12600
C -0.59400 -0.90800 3.10500
C -0.93600 -0.30900 4.50200
C -1.77300 0.96400 4.03200
C -1.15500 1.16800 2.66000
C -3.26300 0.68500 3.86300
C 0.34500 0.11000 5.29900
C 0.12400 0.39700 6.78700
H 1.16800 0.03300 7.73300
N -0.18500 1.96100 -0.15200
C -0.70300 2.80000 0.77700
C -0.62000 4.15600 0.19300
C -0.18700 4.01500 -1.22500
C -0.21400 2.58300 -1.38000
C -0.88700 5.40600 0.97400
C 0.18100 5.01300 -2.27700
O 0.30300 4.69000 -3.50800
C 0.31000 6.41400 -1.83700
N -0.26500 -0.41300 -2.02900
C -0.27900 0.56900 -2.93700
C -0.19600 0.02400 -4.33200
C 0.12400 -1.53300 -4.18000
C 0.08600 -1.63200 -2.63500
C -1.45100 0.20500 -5.19700
C 1.37300 -2.07000 -4.92300
C 2.62600 -1.49000 -4.30600
N 0.15000 -2.14400 0.30300
C 0.17300 -3.13600 -0.68800
C 0.17300 -4.43800 0.00400
C 0.13300 -4.11100 1.35800
C 0.08300 -2.69500 1.50200
C 0.14900 -5.71500 -0.62300
C 0.09600 -4.62900 2.71600
O 0.20800 -5.74700 3.22100
C -0.25500 -3.42800 3.70100
C 0.71700 -3.48200 4.84800
O 1.93100 -3.25500 4.66900
O 0.03800 -3.55600 6.00300
C 0.94300 -3.58300 7.18300
H -1.85900 3.22000 2.49700
H -0.21800 2.45300 -3.47400
H 0.27600 -3.74700 -2.60500
H -1.55400 -0.94900 5.13200
H -1.58500 1.83100 4.66500
H -3.48400 -0.37700 3.96900
H -3.51100 1.02700 2.85800
H -3.85200 1.30100 4.54300
H 0.66900 1.09600 4.96600
H 1.13000 -0.63900 5.18900
H -0.84400 0.02600 7.12500
H 0.06200 1.47700 6.92100
H -1.34400 5.18600 1.93800
H -1.65100 5.96300 0.43200
H 0.00700 6.02000 1.08400
H -0.63500 6.74400 -1.40500
H 0.66500 6.97000 -2.70400
H 1.04800 6.46600 -1.03600
H 0.60800 0.50100 -4.89100
H -0.69200 -2.15600 -4.54700
H -1.26700 0.74000 -6.12900
H -2.20400 0.71400 -4.59600
H -1.96700 -0.72000 -5.45300
H 1.35600 -1.75900 -5.96700
H 1.45200 -3.15700 -4.90200
H 2.71400 -0.52200 -4.79800
H 3.48700 -2.12100 -4.52900
H 2.49500 -1.30300 -3.24000
H 0.86700 -6.33300 -0.08400
H 0.40400 -5.64200 -1.68000
H -0.89100 -5.99900 -0.46300
H -1.28300 -3.58100 4.02800
H 0.69800 -4.47800 7.75500
H 0.83300 -2.61900 7.68000
H 2.00000 -3.75400 6.97600
Mg 13.14578 1.18772 1.00409
C 13.24970 -1.00517 3.84302
C 12.18540 3.66614 3.14177
C 12.60927 3.02584 -1.52591
C 12.99083 -1.65267 -1.00934
N 12.79777 1.20530 3.18831
C 12.92836 0.32819 4.17217
C 12.78064 0.93091 5.59500
C 11.90065 2.22071 5.21961
C 12.34278 2.40457 3.76930
C 10.40478 1.95323 5.23267
C 14.16184 1.33927 6.21752
C 14.12624 1.64580 7.71636
H 15.28168 1.27733 8.52979
N 12.97258 3.15968 0.86289
C 12.59274 4.01488 1.83533
C 12.60524 5.35219 1.22248
C 12.86400 5.19790 -0.23490
C 12.80333 3.75560 -0.36215
C 12.46385 6.61493 2.02179
C 13.11086 6.18571 -1.33466
O 13.07512 5.84208 -2.56895
C 13.30317 7.58533 -0.92776
N 12.63091 0.76160 -0.96458
C 12.51029 1.74316 -1.87557
C 12.40730 1.18061 -3.27318
C 12.72819 -0.37982 -3.13294
C 12.88022 -0.47002 -1.59862
C 11.05663 1.36195 -3.96542
C 13.86778 -0.94677 -4.02322
C 15.19722 -0.37511 -3.58598
N 13.30778 -0.94518 1.30833
C 13.18677 -1.95775 0.33153
C 13.25663 -3.25383 1.03702
C 13.39140 -2.90245 2.38863
C 13.38430 -1.48733 2.51857
C 13.14751 -4.53745 0.43161
C 13.52737 -3.40694 3.73611
O 13.67953 -4.52111 4.23533
C 13.31458 -2.20206 4.75069
C 14.42136 -2.25060 5.76814
O 15.60141 -2.05426 5.42825
O 13.88467 -2.30407 7.00082
C 14.94304 -2.34258 8.04494
H 11.66258 4.45404 3.68469
H 12.53000 3.61363 -2.44335
H 13.04842 -2.58428 -1.57631
H 12.24384 0.30671 6.29927
H 12.18703 3.08194 5.81764
H 10.18399 0.90612 5.37741
H 10.03770 2.28793 4.27128
H 9.91528 2.58554 5.97894
H 14.45140 2.32491 5.83100
H 14.90510 0.59172 6.01913
H 13.19853 1.29743 8.18641
H 14.10272 2.73026 7.84831
H 12.12169 6.40817 3.04335
H 11.64582 7.18809 1.57214
H 13.37011 7.22422 2.01062
H 12.42642 7.92662 -0.38250
H 13.55491 8.12392 -1.84342
H 14.14650 7.63407 -0.22988
H 13.14240 1.63314 -3.92735
H 11.85980 -0.99997 -3.39968
H 11.12966 1.89537 -4.93196
H 10.39478 1.88764 -3.29003
H 10.50815 0.44109 -4.15621
H 13.72475 -0.64016 -5.06230
H 13.92618 -2.03003 -4.01222
H 15.22981 0.59211 -4.09640
H 16.01460 -1.01808 -3.90615
H 15.20578 -0.17913 -2.50748
H 13.91158 -5.15887 0.87943
H 13.26424 -4.47881 -0.64854
H 12.12708 -4.80318 0.72037
H 12.33241 -2.32830 5.20784
H 14.75665 -3.23102 8.65618
H 14.89596 -1.36175 8.55436
H 15.96161 -2.51942 7.71984
158

Mg 0.00000 0.00000 0.00000
C -0.21700 -2.21800 2.80100
C -1.25500 2.44200 2.02600
C -0.24500 1.85000 -2.56400
C 0.14600 -2.82400 -2.03700
N -0.61700 -0.00900 2.12600
C -0.59400 -0.90800 3.10500
C -0.93600 -0.30900 4.50200
C -1.77300 0.96400 4.03200
C -1.15500 1.16800 2.66000
C -3.26300 0.68500 3.86300
C 0.34500 0.11000 5.29900
C 0.12400 0.39700 6.78700
H 1.16800 0.03300 7.73300
N -0.18500 1.96100 -0.15200
C -0.70300 2.80000 0.77700
C -0.62000 4.15600 0.19300
C -0.18700 4.01500 -1.22500
C -0.21400 2.58300 -1.38000
C -0.88700 5.40600 0.97400
C 0.18100 5.01300 -2.27700
O 0.30300 4.69000 -3.50800
C 0.31000 6.41400 -1.83700
N -0.26500 -0.41300 -2.02900
C -0.27900 0.56900 -2.93700
C -0.19600 0.02400 -4.33200
C 0.12400 -1.53300 -4.18000
C 0.08600 -1.63200 -2.63500
C -1.45100 0.20500 -5.19700
C 1.37300 -2.07000 -4.92300
C 2.62600 -1.49000 -4.30600
N 0.15000 -2.14400 0.30300
C 0.17300 -3.13600 -0.68800
C 0.17300 -4.43800 0.00400
C 0.13300 -4.11100 1.35800
C 0.08300 -2.69500 1.50200
C 0.14900 -5.71500 -0.62300
C 0.09600 -4.62900 2.71600
O 0.20800 -5.74700 3.22100
C -0.25500 -3.42800 3.70100
C 0.71700 -3.48200 4.84800
O 1.93100 -3.25500 4.66900
O 0.03800 -3.55600 6.00300
C 0.94300 -3.58300 7.18300
H -1.85900 3.22000 2.49700
H -0.21800 2.45300 -3.47400
H 0.27600 -3.74700 -2.60500
H -1.55400 -0.94900 5.13200
H -1.58500 1.83100 4.66500
H -3.48400 -0.37700 3.96900
H -3.51100 1.02700 2.85800
H -3.85200 1.30100 4.54300
H 0.66900 1.09600 4.96600
H 1.13000 -0.63900 5.18900
H -0.84400 0.02600 7.12500
H 0.06200 1.47700 6.92100
H -1.34400 5.18600 1.93800
H -1.65100 5.96300 0.43200
H 0.00700 6.02000 1.08400
H -0.63500 6.74400 -1.40500
H 0.66500 6.97000 -2.70400
H 1.04800 6.46600 -1.03600
H 0.60800 0.50100 -4.89100
H -0.69200 -2.15600 -4.54700
H -1.26700 0.74000 -6.12900
H -2.20400 0.71400 -4.59600
H -1.96700 -0.72000 -5.45300
H 1.35600 -1.75900 -5.96700
H 1.45200 -3.15700 -4.90200
H 2.71400 -0.52200 -4.79800
H 3.48700 -2.12100 -4.52900
H 2.49500 -1.30300 -3.24000
H 0.86700 -6.33300 -0.08400
H 0.40400 -5.64200 -1.68000
H -0.89100 -5.99900 -0.46300
H -1.28300 -3.58100 4.02800
H 0.69800 -4.47800 7.75500
H 0.83300 -2.61900 7.68000
H 2.00000 -3.75400 6.97600
Mg 13.14618 1.18769 1.00360
C 13.41340 -0.99192 3.84208
C 12.33893 3.68336 3.18411
C 12.46424 3.01715 -1.49750
C 12.84567 -1.66137 -0.98090
N 12.93626 1.21848 3.20524
C 13.12246 0.34530 4.18363
C 13.06855 0.95604 5.60969
C 12.17551 2.25021 5.28342
C 12.52685 2.42380 3.80724
C 10.68163 1.99347 5.39185
C 14.48890 1.35759 6.14203
C 14.54965 1.67172 7.63849
H 15.75140 1.29903 8.37969
N 12.97787 3.16012 0.86302
C 12.66572 4.02277 1.85281
C 12.64878 5.35694 1.23324
C 12.81438 5.19365 -0.23667
C 12.73602 3.75122 -0.35214
C 12.56649 6.62456 2.03310
C 12.99834 6.17427 -1.35503
O 12.88276 5.82485 -2.58279
C 13.22536 7.57447 -0.96850
N 12.50571 0.75560 -0.92654
C 12.33475 1.73351 -1.83339
C 12.14030 1.16485 -3.21874
C 12.45875 -0.39712 -3.09059
C 12.70629 -0.48086 -1.56839
C 10.75006 1.35241 -3.82573
C 13.53625 -0.97653 -4.04765
C 14.89440 -0.41222 -3.69785
N 13.31246 -0.94478 1.30846
C 13.12342 -1.96125 0.34662
C 13.22866 -3.25432 1.05325
C 13.45050 -2.89727 2.39183
C 13.46121 -1.48152 2.51439
C 13.07297 -4.54008 0.46276
C 13.66745 -3.39610 3.73079
O 13.84311 -4.50886 4.22540
C 13.52705 -2.18476 4.75027
C 14.69523 -2.23620 5.69644
O 15.85290 -2.04994 5.28205
O 14.23673 -2.27979 6.96065
C 15.35834 -2.32071 7.93643
H 11.85664 4.47762 3.75457
H 12.33146 3.60099 -2.41127
H 12.86117 -2.59614 -1.54538
H 12.57285 0.33914 6.34961
H 12.50476 3.11230 5.85766
H 10.46325 0.94868 5.55576
H 10.25714 2.32605 4.45364
H 10.24432 2.63290 6.16400
H 14.76030 2.33924 5.73282
H 15.21312 0.60380 5.90134
H 13.65097 1.33228 8.16773
H 14.54185 2.75695 7.76585
H 12.28782 6.42526 3.07522
H 11.72574 7.20132 1.63266
H 13.47439 7.22731 1.96176
H 12.38696 7.92466 -0.37107
H 13.42272 8.10674 -1.90103
H 14.11119 7.62061 -0.32524
H 12.83590 1.60892 -3.92020
H 11.57111 -1.01236 -3.29894
H 10.76583 1.88055 -4.79779
H 10.13556 1.88612 -3.11292
H 10.18443 0.43456 -3.97677
H 13.33029 -0.67401 -5.07732
H 13.58785 -2.06011 -4.03455
H 14.90142 0.55222 -4.21447
H 15.68565 -1.06257 -4.06528
H 14.97206 -0.21101 -2.62307
H 13.85943 -5.16472 0.86501
H 13.12199 -4.48758 -0.62288
H 12.07093 -4.79711 0.81647
H 12.57472 -2.30176 5.26888
H 15.20469 -3.20479 8.56291
H 15.35004 -1.33708 8.44254
H 16.35324 -2.50640 7.54894
158

Mg 0.00000 0.00000 0.00000
C -0.21700 -2.21800 2.80100
C -1.25500 2.44200 2.02600
C -0.24500 1.85000 -2.56400
C 0.14600 -2.82400 -2.03700
N -0.61700 -0.00900 2.12600
C -0.59400 -0.90800 3.10500
C -0.93600 -0.30900 4.50200
C -1.77300 0.96400 4.03200
C -1.15500 1.16800 2.66000
C -3.26300 0.68500 3.86300
C 0.34500 0.11000 5.29900
C 0.12400 0.39700 6.78700
H 1.16800 0.03300 7.73300
N -0.18500 1.96100 -0.15200
C -0.70300 2.80000 0.77700
C -0.62000 4.15600 0.19300
C -0.18700 4.01500 -1.22500
C -0.21400 2.58300 -1.38000
C -0.88700 5.40600 0.97400
C 0.18100 5.01300 -2.27700
O 0.30300 4.69000 -3.50800
C 0.31000 6.41400 -1.83700
N -0.26500 -0.41300 -2.02900
C -0.27900 0.56900 -2.93700
C -0.19600 0.02400 -4.33200
C 0.12400 -1.53300 -4.18000
C 0.08600 -1.63200 -2.63500
C -1.45100 0.20500 -5.19700
C 1.37300 -2.07000 -4.92300
C 2.62600 -1.49000 -4.30600
N 0.15000 -2.14400 0.30300
C 0.17300 -3.13600 -0.68800
C 0.17300 -4.43800 0.00400
C 0.13300 -4.11100 1.35800
C 0.08300 -2.69500 1.50200
C 0.14900 -5.71500 -0.62300
C 0.09600 -4.62900 2.71600
O 0.20800 -5.74700 3.22100
C -0.25500 -3.42800 3.70100
C 0.71700 -3.48200 4.84800
O 1.93100 -3.25500 4.66900
O 0.03800 -3.55600 6.00300
C 0.94300 -3.58300 7.18300
H -1.85900 3.22000 2.49700
H -0.21800 2.45300 -3.47400
H 0.27600 -3.74700 -2.60500
H -1.55400 -0.94900 5.13200
H -1.58500 1.83100 4.66500
H -3.48400 -0.37700 3.96900
H -3.51100 1.02700 2.85800
H -3.85200 1.30100 4.54300
H 0.66900 1.09600 4.96600
H 1.13000 -0.63900 5.18900
H -0.84400 0.02600 7.12500
H 0.06200 1.47700 6.92100
H -1.34400 5.18600 1.93800
H -1.65100 5.96300 0.43200
H 0.00700 6.02000 1.08400
H -0.63500 6.74400 -1.40500
H 0.66500 6.97000 -2.70400
H 1.04800 6.46600 -1.03600
H 0.60800 0.50100 -4.89100
H -0.69200 -2.15600 -4.54700
H -1.26700 0.74000 -6.12900
H -2.20400 0.71400 -4.59600
H -1.96700 -0.72000 -5.45300
H 1.35600 -1.75900 -5.96700
H 1.45200 -3.15700 -4.90200
H 2.71400 -0.52200 -4.79800
H 3.48700 -2.12100 -4.52900
H 2.49500 -1.30300 -3.24000
H 0.86700 -6.33300 -0.08400
H 0.40400 -5.64200 -1.68000
H -0.89100 -5.99900 -0.46300
H -1.28300 -3.58100 4.02800
H 0.69800 -4.47800 7.75500
H 0.83300 -2.61900 7.68000
H 2.00000 -3.75400 6.97600
Mg 13.14655 1.18767 1.00308
C 13.57680 -0.97983 3.83078
C 12.49493 3.69969 3.21662
C 12.32122 3.00964 -1.45998
C 12.70253 -1.66889 -0.94336
N 13.07563 1.23075 3.21337
C 13.31701 0.36108 4.18278
C 13.35699 0.97918 5.60613
C 12.45403 2.27807 5.32968
C 12.71308 2.44190 3.83344
C 10.96821 2.03251 5.53310
C 14.81068 1.37321 6.04604
C 14.96750 1.69424 7.53403
H 16.21089 1.31664 8.20026
N 12.98315 3.16053 0.86281
C 12.73971 4.03023 1.86563
C 12.69294 5.36142 1.24122
C 12.76471 5.18975 -0.23529
C 12.66943 3.74736 -0.33790
C 12.66971 6.63352 2.03788
C 12.88469 6.16354 -1.36823
O 12.68980 5.80893 -2.58441
C 13.14507 7.56396 -1.00421
N 12.38311 0.75067 -0.88067
C 12.16215 1.72532 -1.78021
C 11.87715 1.15127 -3.14755
C 12.19240 -0.41228 -3.03131
C 12.53454 -0.49031 -1.52724
C 10.45282 1.34575 -3.66701
C 13.20364 -1.00405 -4.05105
C 14.58490 -0.44772 -3.79027
N 13.31715 -0.94442 1.30830
C 13.06112 -1.96422 0.36568
C 13.20177 -3.25452 1.07120
C 13.50972 -2.89250 2.39128
C 13.53774 -1.47627 2.50535
C 13.00053 -4.54203 0.49854
C 13.80700 -3.38628 3.71661
O 14.00581 -4.49782 4.20516
C 13.73919 -2.16899 4.73641
C 14.96415 -2.22410 5.60759
O 16.09472 -2.04813 5.12031
O 14.58572 -2.25822 6.89833
C 15.76614 -2.30234 7.80193
H 12.05486 4.50016 3.81199
H 12.13525 3.58991 -2.36672
H 12.67616 -2.60650 -1.50270
H 12.90458 0.36947 6.37901
H 12.82458 3.14060 5.87749
H 10.75346 0.99012 5.71599
H 10.48786 2.36350 4.62164
H 10.58465 2.67883 6.32777
H 15.06250 2.35088 5.61535
H 15.51320 0.61311 5.76437
H 14.10158 1.36381 8.12049
H 14.97511 2.78012 7.65583
H 12.45574 6.44132 3.09650
H 11.80939 7.21427 1.68796
H 13.57540 7.22942 1.90644
H 12.34828 7.92304 -0.35719
H 13.28705 8.09023 -1.95013
H 14.06988 7.60695 -0.41813
H 12.53029 1.58692 -3.89369
H 11.28925 -1.02220 -3.18020
H 10.41106 1.86898 -4.64095
H 9.88798 1.88731 -2.91988
H 9.87258 0.43122 -3.77731
H 12.93544 -0.70513 -5.06735
H 13.24860 -2.08790 -4.03542
H 14.56600 0.51410 -4.31146
H 15.34706 -1.10549 -4.20320
H 14.73132 -0.24180 -2.72359
H 13.80645 -5.17027 0.85393
H 12.98157 -4.49520 -0.58830
H 12.02097 -4.79017 0.91586
H 12.82056 -2.27664 5.31443
H 15.64616 -3.18222 8.44154
H 15.79636 -1.31620 8.30230
H 16.73343 -2.49701 7.35371
158

Mg 0.00000 0.00000 0.00000
C -0.21700 -2.21800 2.80100
C -1.25500 2.44200 2.02600
C -0.24500 1.85000 -2.56400
C 0.14600 -2.82400 -2.03700
N -0.61700 -0.00900 2.12600
C -0.59400 -0.90800 3.10500
C -0.93600 -0.30900 4.50200
C -1.77300 0.96400 4.03200
C -1.15500 1.16800 2.66000
C -3.26300 0.68500 3.86300
C 0.34500 0.11000 5.29900
C 0.12400 0.39700 6.78700
H 1.16800 0.03300 7.73300
N -0.18500 1.96100 -0.15200
C -0.70300 2.80000 0.77700
C -0.62000 4.15600 0.19300
C -0.18700 4.01500 -1.22500
C -0.21400 2.58300 -1.38000
C -0.88700 5.40600 0.97400
C 0.18100 5.01300 -2.27700
O 0.30300 4.69000 -3.50800
C 0.31000 6.41400 -1.83700
N -0.26500 -0.41300 -2.02900
C -0.27900 0.56900 -2.93700
C -0.19600 0.02400 -4.33200
C 0.12400 -1.53300 -4.18000
C 0.08600 -1.63200 -2.63500
C -1.45100 0.20500 -5.19700
C 1.37300 -2.07000 -4.92300
C 2.62600 -1.49000 -4.30600
N 0.15000 -2.14400 0.30300
C 0.17300 -3.13600 -0.68800
C 0.17300 -4.43800 0.00400
C 0.13300 -4.11100 1.35800
C 0.08300 -2.69500 1.50200
C 0.14900 -5.71500 -0.62300
C 0.09600 -4.62900 2.71600
O 0.20800 -5.74700 3.22100
C -0.25500 -3.42800 3.70100
C 0.71700 -3.48200 4.84800
O 1.93100 -3.25500 4.66900
O 0.03800 -3.55600 6.00300
C 0.94300 -3.58300 7.18300
H -1.85900 3.22000 2.49700
H -0.21800 2.45300 -3.47400
H 0.27600 -3.74700 -2.60500
H -1.55400 -0.94900 5.13200
H -1.58500 1.83100 4.66500
H -3.48400 -0.37700 3.96900
H -3.51100 1.02700 2.85800
H -3.85200 1.30100 4.54300
H 0.66900 1.09600 4.96600
H 1.13000 -0.63900 5.18900
H -0.84400 0.02600 7.12500
H 0.06200 1.47700 6.92100
H -1.34400 5.18600 1.93800
H -1.65100 5.96300 0.43200
H 0.00700 6.02000 1.08400
H -0.63500 6.74400 -1.40500
H 0.66500 6.97000 -2.70400
H 1.04800 6.46600 -1.03600
H 0.60800 0.50100 -4.89100
H -0.69200 -2.15600 -4.54700
H -1.26700 0.74000 -6.12900
H -2.20400 0.71400 -4.59600
H -1.96700 -0.72000 -5.45300
H 1.35600 -1.75900 -5.96700
H 1.45200 -3.15700 -4.90200
H 2.71400 -0.52200 -4.79800
H 3.48700 -2.12100 -4.52900
H 2.49500 -1.30300 -3.24000
H 0.86700 -6.33300 -0.08400
H 0.40400 -5.64200 -1.68000
H -0.89100 -5.99900 -0.46300
H -1.28300 -3.58100 4.02800
H 0.69800 -4.47800 7.75500
H 0.83300 -2.61900 7.68000
H 2.00000 -3.75400 6.97600
Mg 13.14688 1.18763 1.00255
C 13.73925 -0.96897 3.80918
C 12.65278 3.71507 3.23918
C 12.18080 3.00333 -1.41352
C 12.56199 -1.67520 -0.89686
N 13.21531 1.24207 3.21266
C 13.51122 0.37547 4.16963
C 13.64478 1.00025 5.58433
C 12.73509 2.30417 5.35821
C 12.90069 2.45880 3.84780
C 11.26336 2.07021 5.65587
C 15.12590 1.38607 5.92995
C 15.37811 1.71327 7.40341
H 16.65831 1.33009 7.99224
N 12.98842 3.16090 0.86227
C 12.81440 4.03722 1.87373
C 12.73754 5.36564 1.24639
C 12.71520 5.18621 -0.23078
C 12.60386 3.74405 -0.31949
C 12.77308 6.64176 2.03612
C 12.77036 6.15354 -1.37421
O 12.49701 5.79436 -2.57383
C 13.06263 7.55385 -1.03476
N 12.26360 0.74685 -0.82717
C 11.99318 1.71862 -1.71625
C 11.61891 1.13991 -3.05991
C 11.93019 -0.42526 -2.95534
C 12.36565 -0.49834 -1.47533
C 10.16610 1.34198 -3.48990
C 12.87130 -1.02921 -4.03340
C 14.26998 -0.48147 -3.86288
N 13.32182 -0.94409 1.30784
C 13.00012 -1.96665 0.38862
C 13.17605 -3.25445 1.09081
C 13.56881 -2.88815 2.38698
C 13.61358 -1.47162 2.49150
C 12.93046 -4.54328 0.53881
C 13.94544 -3.37753 3.69365
O 14.16700 -4.48805 4.17468
C 13.95014 -2.15479 4.70917
C 15.22703 -2.21436 5.50197
O 16.32591 -2.04884 4.94370
O 14.93024 -2.23944 6.81409
C 16.16479 -2.28754 7.64198
H 12.25645 4.52157 3.85673
H 11.94216 3.58045 -2.30988
H 12.49414 -2.61534 -1.44842
H 13.23770 0.39758 6.38736
H 13.14520 3.16671 5.87704
H 11.05344 1.03029 5.85746
H 10.72893 2.40013 4.77462
H 10.93490 2.72313 6.46959
H 15.35679 2.35979 5.47907
H 15.80413 0.61960 5.60878
H 14.54852 1.39191 8.04486
H 15.40074 2.79965 7.51869
H 12.62476 6.45629 3.10710
H 11.89644 7.22691 1.73783
H 13.67276 7.23054 1.84486
H 12.31054 7.92177 -0.34089
H 13.14845 8.07444 -1.99052
H 14.02271 7.59312 -0.50815
H 12.22682 1.56723 -3.84791
H 11.01535 -1.02945 -3.04394
H 10.06677 1.86071 -4.46208
H 9.65304 1.89122 -2.71167
H 9.57387 0.43108 -3.55865
H 12.54179 -0.73339 -5.03243
H 12.90978 -2.11327 -4.01484
H 14.22490 0.47789 -4.38699
H 15.00018 -1.14667 -4.31934
H 14.48454 -0.27136 -2.80862
H 13.75283 -5.17550 0.84624
H 12.84355 -4.50166 -0.54493
H 11.97741 -4.78239 1.01816
H 13.06895 -2.25306 5.34432
H 16.07927 -3.16338 8.29256
H 16.23311 -1.29920 8.13419
H 17.10065 -2.49129 7.13493
158

Mg 0.00000 0.00000 0.00000
C -0.21700 -2.21800 2.80100
C -1.25500 2.44200 2.02600
C -0.24500 1.85000 -2.56400
C 0.14600 -2.82400 -2.03700
N -0.61700 -0.00900 2.12600
C -0.59400 -0.90800 3.10500
C -0.93600 -0.30900 4.50200
C -1.77300 0.96400 4.03200
C -1.15500 1.16800 2.66000
C -3.26300 0.68500 3.86300
C 0.34500 0.11000 5.29900
C 0.12400 0.39700 6.78700
H 1.16800 0.03300 7.73300
N -0.18500 1.96100 -0.15200
C -0.70300 2.80000 0.77700
C -0.62000 4.15600 0.19300
C -0.18700 4.01500 -1.22500
C -0.21400 2.58300 -1.38000
C -0.88700 5.40600 0.97400
C 0.18100 5.01300 -2.27700
O 0.30300 4.69000 -3.50800
C 0.31000 6.41400 -1.83700
N -0.26500 -0.41300 -2.02900
C -0.27900 0.56900 -2.93700
C -0.19600 0.02400 -4.33200
C 0.12400 -1.53300 -4.18000
C 0.08600 -1.63200 -2.63500
C -1.45100 0.20500 -5.19700
C 1.37300 -2.07000 -4.92300
C 2.62600 -1.49000 -4.30600
N 0.15000 -2.14400 0.30300
C 0.17300 -3.13600 -0.68800
C 0.17300 -4.43800 0.00400
C 0.13300 -4.11100 1.35800
C 0.08300 -2.69500 1.50200
C 0.14900 -5.71500 -0.62300
C 0.09600 -4.62900 2.71600
O 0.20800 -5.74700 3.22100
C -0.25500 -3.42800 3.70100
C 0.71700 -3.48200 4.84800
O 1.93100 -3.25500 4.66900
O 0.03800 -3.55600 6.00300
C 0.94300 -3.58300 7.18300
H -1.85900 3.22000 2.49700
H -0.21800 2.45300 -3.47400
H 0.27600 -3.74700 -2.60500
H -1.55400 -0.94900 5.13200
H -1.58500 1.83100 4.66500
H -3.48400 -0.37700 3.96900
H -3.51100 1.02700 2.85800
H -3.85200 1.30100 4.54300
H 0.66900 1.09600 4.96600
H 1.13000 -0.63900 5.18900
H -0.84400 0.02600 7.12500
H 0.06200 1.47700 6.92100
H -1.34400 5.18600 1.93800
H -1.65100 5.96300 0.43200
H 0.00700 6.02000 1.08400
H -0.63500 6.74400 -1.40500
H 0.66500 6.97000 -2.70400
H 1.04800 6.46600 -1.03600
H 0.60800 0.50100 -4.89100
H -0.69200 -2.15600 -4.54700
H -1.26700 0.74000 -6.12900
H -2.20400 0.71400 -4.59600
H -1.96700 -0.72000 -5.45300
H 1.35600 -1.75900 -5.96700
H 1.45200 -3.15700 -4.90200
H 2.71400 -0.52200 -4.79800
H 3.48700 -2.12100 -4.52900
H 2.49500 -1.30300 -3.24000
H 0.86700 -6.33300 -0.08400
H 0.40400 -5.64200 -1.68000
H -0.89100 -5.99900 -0.46300
H -1.28300 -3.58100 4.02800
H 0.69800 -4.47800 7.75500
H 0.83300 -2.61900 7.68000
H 2.00000 -3.75400 6.97600
Mg 13.14718 1.18760 1.00199
C 13.90008 -0.95937 3.77737
C 12.81183 3.72944 3.25169
C 12.04353 2.99825 -1.35830
C 12.42460 -1.68029 -0.84160
N 13.35475 1.25239 3.20312
C 13.70431 0.38841 4.14423
C 13.93077 1.01916 5.54439
C 13.01756 2.32840 5.36889
C 13.08896 2.47444 3.85025
C 11.56589 2.10640 5.75965
C 15.43327 1.39611 5.79422
C 15.77981 1.72874 7.24716
H 17.09186 1.33934 7.75645
N 12.99364 3.16123 0.86139
C 12.88950 4.04372 1.87709
C 12.78240 5.36956 1.24872
C 12.66605 5.18304 -0.22315
C 12.53954 3.74130 -0.29698
C 12.87619 6.64925 2.02782
C 12.65582 6.14434 -1.37294
O 12.30518 5.78123 -2.55109
C 12.97836 7.54417 -1.06001
N 12.14767 0.74414 -0.76625
C 11.82852 1.71344 -1.64177
C 11.36662 1.13082 -2.95615
C 11.67320 -0.43600 -2.86297
C 12.20031 -0.50491 -1.41287
C 9.89106 1.34113 -3.29511
C 12.54057 -1.05192 -3.99478
C 13.95088 -0.51333 -3.91538
N 13.32645 -0.94379 1.30708
C 12.94067 -1.96854 0.41537
C 13.15162 -3.25409 1.11200
C 13.62755 -2.88425 2.37896
C 13.68844 -1.46758 2.47288
C 12.86306 -4.54384 0.58341
C 14.08221 -3.36988 3.66198
O 14.32601 -4.47957 4.13408
C 14.15905 -2.14223 4.66865
C 15.48281 -2.20700 5.37999
O 16.54553 -2.05207 4.75292
O 15.26891 -2.22353 6.70828
C 16.55270 -2.27636 7.45723
H 12.46059 4.54176 3.88860
H 11.75296 3.57265 -2.24097
H 12.31583 -2.62262 -1.38277
H 13.57088 0.42336 6.37461
H 13.46532 3.19054 5.85632
H 11.36199 1.06900 5.97958
H 10.97939 2.43579 4.91196
H 11.29367 2.76563 6.58889
H 15.64199 2.36594 5.32453
H 16.08475 0.62326 5.43518