%nproc=24
%mem=175gb
#p cam-b3lyp/Def2SVP td=(nstates=5)

TDDFT excited states in gaussian

0 1
Mg 0.00000 0.00000 0.00000
C -0.21700 -2.21800 2.80100
C -1.25500 2.44200 2.02600
C -0.24500 1.85000 -2.56400
C 0.14600 -2.82400 -2.03700
N -0.61700 -0.00900 2.12600
C -0.59400 -0.90800 3.10500
C -0.93600 -0.30900 4.50200
C -1.77300 0.96400 4.03200
C -1.15500 1.16800 2.66000
C -3.26300 0.68500 3.86300
C 0.34500 0.11000 5.29900
C 0.12400 0.39700 6.78700
H 1.16800 0.03300 7.73300
N -0.18500 1.96100 -0.15200
C -0.70300 2.80000 0.77700
C -0.62000 4.15600 0.19300
C -0.18700 4.01500 -1.22500
C -0.21400 2.58300 -1.38000
C -0.88700 5.40600 0.97400
C 0.18100 5.01300 -2.27700
O 0.30300 4.69000 -3.50800
C 0.31000 6.41400 -1.83700
N -0.26500 -0.41300 -2.02900
C -0.27900 0.56900 -2.93700
C -0.19600 0.02400 -4.33200
C 0.12400 -1.53300 -4.18000
C 0.08600 -1.63200 -2.63500
C -1.45100 0.20500 -5.19700
C 1.37300 -2.07000 -4.92300
C 2.62600 -1.49000 -4.30600
N 0.15000 -2.14400 0.30300
C 0.17300 -3.13600 -0.68800
C 0.17300 -4.43800 0.00400
C 0.13300 -4.11100 1.35800
C 0.08300 -2.69500 1.50200
C 0.14900 -5.71500 -0.62300
C 0.09600 -4.62900 2.71600
O 0.20800 -5.74700 3.22100
C -0.25500 -3.42800 3.70100
C 0.71700 -3.48200 4.84800
O 1.93100 -3.25500 4.66900
O 0.03800 -3.55600 6.00300
C 0.94300 -3.58300 7.18300
H -1.85900 3.22000 2.49700
H -0.21800 2.45300 -3.47400
H 0.27600 -3.74700 -2.60500
H -1.55400 -0.94900 5.13200
H -1.58500 1.83100 4.66500
H -3.48400 -0.37700 3.96900
H -3.51100 1.02700 2.85800
H -3.85200 1.30100 4.54300
H 0.66900 1.09600 4.96600
H 1.13000 -0.63900 5.18900
H -0.84400 0.02600 7.12500
H 0.06200 1.47700 6.92100
H -1.34400 5.18600 1.93800
H -1.65100 5.96300 0.43200
H 0.00700 6.02000 1.08400
H -0.63500 6.74400 -1.40500
H 0.66500 6.97000 -2.70400
H 1.04800 6.46600 -1.03600
H 0.60800 0.50100 -4.89100
H -0.69200 -2.15600 -4.54700
H -1.26700 0.74000 -6.12900
H -2.20400 0.71400 -4.59600
H -1.96700 -0.72000 -5.45300
H 1.35600 -1.75900 -5.96700
H 1.45200 -3.15700 -4.90200
H 2.71400 -0.52200 -4.79800
H 3.48700 -2.12100 -4.52900
H 2.49500 -1.30300 -3.24000
H 0.86700 -6.33300 -0.08400
H 0.40400 -5.64200 -1.68000
H -0.89100 -5.99900 -0.46300
H -1.28300 -3.58100 4.02800
H 0.69800 -4.47800 7.75500
H 0.83300 -2.61900 7.68000
H 2.00000 -3.75400 6.97600
Mg 7.88065 0.71415 0.60812
C 5.76931 -1.81683 2.02778
C 5.22249 2.84084 0.82251
C 9.56722 2.83051 -1.04836
C 9.95064 -1.84775 -0.53096
N 5.81557 0.43155 1.34829
C 5.14515 -0.55643 1.92169
C 3.75528 -0.15074 2.48137
C 3.48335 1.12672 1.54702
C 4.92775 1.51949 1.24355
C 2.79758 0.77863 0.23633
C 3.81488 0.24881 3.99755
C 2.45353 0.35754 4.68794
H 2.34794 -0.04897 6.08654
N 7.64668 2.67549 0.41581
C 6.50246 3.37646 0.55964
C 6.85474 4.78019 0.29581
C 8.26508 4.82904 -0.17671
C 8.54729 3.41396 -0.31087
C 5.91765 5.91999 0.57175
C 9.20034 5.96213 -0.47269
O 10.30314 5.77873 -1.09960
C 8.74379 7.30614 -0.08972
N 9.40483 0.51745 -0.79206
C 10.00219 1.60002 -1.32039
C 11.24529 1.21719 -2.08754
C 11.49313 -0.32847 -1.76032
C 10.24537 -0.60691 -0.89373
C 11.17876 1.41218 -3.60212
C 12.88732 -0.71317 -1.19384
C 13.06052 -0.13089 0.19048
N 7.99006 -1.42813 0.86641
C 8.92168 -2.31168 0.27862
C 8.52240 -3.68201 0.65966
C 7.36372 -3.50064 1.42977
C 7.05071 -2.11651 1.50534
C 9.17480 -4.88109 0.25631
C 6.32822 -4.16614 2.18710
O 6.12196 -5.32531 2.54419
C 5.17825 -3.11522 2.50260
C 4.82783 -3.23386 3.96056
O 5.65711 -2.93137 4.83657
O 3.50933 -3.47467 4.07866
C 3.11131 -3.58944 5.50702
H 4.39267 3.52265 0.63429
H 10.24460 3.52626 -1.54892
H 10.60001 -2.69413 -0.76468
H 2.97503 -0.88871 2.33855
H 2.98042 1.91816 2.09660
H 2.71244 -0.28887 0.09727
H 3.41141 1.21373 -0.54145
H 1.82863 1.28202 0.17255
H 4.15129 1.29031 4.08042
H 4.44473 -0.42535 4.54475
H 1.65239 -0.09847 4.09366
H 2.17694 1.41310 4.74548
H 4.89637 5.56516 0.75747
H 5.83933 6.50078 -0.35368
H 6.27376 6.57414 1.37046
H 7.80566 7.52612 -0.59370
H 9.58394 7.97098 -0.29951
H 8.53207 7.31058 0.98535
H 12.10024 1.78954 -1.74903
H 11.39792 -0.95556 -2.65895
H 11.97881 2.06872 -3.99323
H 10.20421 1.80973 -3.85261
H 11.21161 0.49501 -4.18770
H 13.67912 -0.28367 -1.81250
H 13.05619 -1.78404 -1.15232
H 13.38484 0.89428 -0.01182
H 13.81685 -0.68180 0.74591
H 12.10062 -0.07514 0.71691
H 9.23575 -5.51237 1.13282
H 10.16032 -4.67768 -0.15739
H 8.47551 -5.23700 -0.50500
H 4.33152 -3.35259 1.85741
H 2.61530 -4.55797 5.62364
H 2.51008 -2.68635 5.72310
H 3.90282 -3.66718 6.24318

