%nproc=24
%mem=175gb
#p cam-b3lyp/Def2SVP td=(nstates=5)

TDDFT excited states in gaussian

0 1
Mg 7.89095 0.70271 0.60040
C 8.06863 -0.85126 -2.62956
C 7.18814 -2.38019 1.87961
C 7.28452 2.10443 3.38156
C 7.47239 3.74812 -1.04154
N 7.68309 -1.28244 -0.35262
C 7.83331 -1.76163 -1.57824
C 7.80508 -3.31087 -1.67106
C 6.96621 -3.61650 -0.33624
C 7.32402 -2.36863 0.46841
C 5.46302 -3.62633 -0.55915
C 9.24096 -3.93996 -1.60377
C 9.31506 -5.41693 -1.99723
H 10.50058 -5.88954 -2.70692
N 7.80427 -0.05940 2.43077
C 7.52831 -1.33662 2.76819
C 7.56637 -1.38161 4.23812
C 7.72466 0.00824 4.74602
C 7.58672 0.75684 3.51286
C 7.53676 -2.66640 5.01392
C 7.94870 0.57130 6.11677
O 7.81844 1.82295 6.36014
C 8.23350 -0.39778 7.18508
N 7.23263 2.60922 1.10454
C 7.10199 2.97781 2.39101
C 6.88382 4.46714 2.51227
C 7.13748 5.05910 1.04843
C 7.38176 3.74106 0.28130
C 5.50235 4.89929 3.00336
C 8.18984 6.19443 0.92103
C 9.57025 5.65430 1.21786
N 7.96903 1.38975 -1.44653
C 7.73787 2.70155 -1.91538
C 7.78977 2.65198 -3.39094
C 8.02655 1.29987 -3.68116
C 8.09580 0.55563 -2.47252
C 7.58091 3.75334 -4.26815
C 8.22307 0.33116 -4.73552
O 8.35271 0.39150 -5.95752
C 8.13314 -1.12574 -4.10643
C 9.29845 -1.92620 -4.62005
O 10.46271 -1.61767 -4.31036
O 8.83889 -3.04498 -5.20955
C 9.95812 -3.87750 -5.72535
H 6.73925 -3.25523 2.35046
H 7.17573 2.65665 4.31788
H 7.44909 4.67205 -1.62334
H 7.28451 -3.70473 -2.53573
H 7.33097 -4.51007 0.16359
H 5.20169 -3.30836 -1.55752
H 5.05238 -2.94508 0.17454
H 5.05272 -4.61131 -0.31872
H 9.55259 -4.00942 -0.55362
H 9.93334 -3.37321 -2.19541
H 8.40326 -5.75453 -2.50478
H 9.35216 -6.01758 -1.08517
H 7.25038 -3.51350 4.37846
H 6.72045 -2.58303 5.73956
H 8.46878 -2.85590 5.55067
H 7.41046 -1.10445 7.26044
H 8.45243 0.20054 8.07162
H 9.12066 -0.97664 6.90494
H 7.59699 4.90789 3.19801
H 6.22511 5.50451 0.62531
H 5.53967 5.53137 3.91065
H 4.91064 4.01143 3.18255
H 4.89923 5.43525 2.27248
H 7.99627 6.97500 1.66089
H 8.19662 6.66964 -0.05422
H 9.61699 5.68357 2.31059
H 10.33385 6.28917 0.77300
H 9.65646 4.60511 0.91223
H 8.34099 3.68880 -5.03536
H 7.63175 4.70085 -3.73578
H 6.56920 3.53370 -4.61952
H 7.17693 -1.55460 -4.40861
H 9.76823 -4.04373 -6.79025
H 9.99062 -4.77105 -5.07400
H 10.94438 -3.42926 -5.75384

