%nproc=24
%mem=175gb
#p cam-b3lyp/Def2SVP td=(nstates=5)

TDDFT excited states in gaussian

0 1
Mg 7.88769 0.71269 0.58974
C 10.62630 -1.59969 0.41081
C 10.19973 3.22048 0.58301
C 5.53324 2.75044 1.19929
C 5.91313 -1.92792 1.71847
N 10.09773 0.68744 0.50416
C 11.02691 -0.24775 0.37608
C 12.45750 0.29772 0.12032
C 12.27695 1.75761 0.76452
C 10.77008 1.92249 0.57785
C 12.58140 1.80057 2.25274
C 12.80028 0.38288 -1.40850
C 14.28005 0.61198 -1.72398
H 14.84591 -0.02615 -2.90934
N 7.80504 2.68314 0.36821
C 8.84257 3.54616 0.36768
C 8.25398 4.88279 0.19121
C 6.77258 4.75485 0.25281
C 6.64393 3.36384 0.63836
C 9.07931 6.10458 -0.09071
C 5.65665 5.72729 0.01771
O 4.44987 5.46274 0.35907
C 6.03307 7.03520 -0.53831
N 6.05441 0.50336 1.54765
C 5.19585 1.53484 1.63035
C 3.83979 1.07847 2.11329
C 3.89695 -0.51974 2.10687
C 5.37020 -0.71859 1.68809
C 3.42914 1.56719 3.50214
C 2.79351 -1.26019 1.30261
C 2.96662 -0.99521 -0.17563
N 8.13063 -1.42127 0.82481
C 7.18572 -2.33575 1.33955
C 7.84936 -3.65368 1.41074
C 9.15174 -3.40785 0.95046
C 9.29607 -2.02973 0.63510
C 7.26323 -4.85486 1.90039
C 10.44043 -3.99874 0.66971
O 10.88763 -5.14491 0.66299
C 11.49022 -2.83013 0.42746
C 12.26919 -3.15617 -0.81730
O 11.70574 -3.18727 -1.92552
O 13.58275 -3.16298 -0.52595
C 14.39751 -3.47072 -1.73147
H 10.84360 4.06918 0.81546
H 4.65589 3.38888 1.32633
H 5.33572 -2.82096 1.96694
H 13.24679 -0.23957 0.63228
H 12.81629 2.51008 0.19508
H 12.75527 0.81443 2.65703
H 11.71486 2.25256 2.71735
H 13.41635 2.47980 2.44725
H 12.37515 1.30746 -1.81980
H 12.45120 -0.48922 -1.92638
H 14.91974 0.43623 -0.85056
H 14.42595 1.67009 -1.95448
H 10.14591 5.91919 0.08648
H 8.80588 6.85510 0.65884
H 8.89658 6.51594 -1.08572
H 6.74403 7.51936 0.12696
H 5.09174 7.55792 -0.71870
H 6.55169 6.87459 -1.49007
H 3.05868 1.40490 1.43771
H 3.79965 -0.93501 3.12073
H 2.47306 2.12396 3.50389
H 4.22737 2.18104 3.89782
H 3.33999 0.78874 4.25797
H 1.80638 -0.87733 1.57304
H 2.78089 -2.33168 1.47221
H 2.47044 -0.02981 -0.31306
H 2.48472 -1.77389 -0.76341
H 4.02441 -0.86137 -0.43025
H 7.54495 -5.64145 1.21308
H 6.18196 -4.76525 1.98165
H 7.74436 -4.92149 2.87985
H 12.13042 -2.77694 1.30887
H 15.02369 -4.33298 -1.48229
H 14.91697 -2.52871 -1.98941
H 13.87627 -3.83447 -2.60921

