%nproc=24
%mem=175gb
#p cam-b3lyp/Def2SVP td=(nstates=5)

TDDFT excited states in gaussian

0 1
Mg 7.89086 0.70289 0.60136
C 8.08719 -1.24650 -2.40536
C 7.14278 -2.18830 2.24939
C 7.26908 2.44859 3.17689
C 7.52120 3.52118 -1.41515
N 7.67286 -1.38444 -0.09704
C 7.83128 -2.01529 -1.25085
C 7.78815 -3.56360 -1.14857
C 6.93192 -3.69148 0.20398
C 7.29388 -2.35553 0.84964
C 5.43119 -3.71599 -0.03383
C 9.21669 -4.19188 -0.98564
C 9.27983 -5.70721 -1.18947
H 10.46797 -6.27579 -1.81996
N 7.77675 0.17785 2.51183
C 7.48410 -1.04429 3.00376
C 7.50594 -0.90438 4.46804
C 7.67304 0.53687 4.79910
C 7.55601 1.12560 3.48010
C 7.45483 -2.08108 5.39874
C 7.88814 1.26586 6.09081
O 7.76813 2.53928 6.17338
C 8.15152 0.43636 7.27574
N 7.24678 2.66342 0.85403
C 7.10615 3.19203 2.08233
C 6.90200 4.68665 2.01286
C 7.17739 5.08753 0.48936
C 7.41633 3.68136 -0.10309
C 5.51985 5.18933 2.42924
C 8.24265 6.18847 0.23285
C 9.61419 5.67779 0.61164
N 7.99792 1.12630 -1.51461
C 7.78527 2.37071 -2.14732
C 7.85248 2.13548 -3.60422
C 8.07845 0.75557 -3.71938
C 8.12711 0.16868 -2.42605
C 7.66434 3.11957 -4.61531
C 8.27631 -0.33976 -4.64123
O 8.41965 -0.43475 -5.85949
C 8.16469 -1.70511 -3.83515
C 9.32716 -2.57409 -4.23018
O 10.49115 -2.23935 -3.94786
O 8.86248 -3.75402 -4.67984
C 9.97857 -4.65466 -5.07356
H 6.67991 -2.99316 2.82108
H 7.15594 3.11513 4.03503
H 7.51362 4.36476 -2.10868
H 7.27285 -4.05847 -1.96303
H 7.28211 -4.51828 0.81646
H 5.18385 -3.52382 -1.06729
H 5.01972 -2.94426 0.60348
H 5.00825 -4.65924 0.32356
H 9.51631 -4.13146 0.06855
H 9.92114 -3.71019 -1.63552
H 8.37011 -6.09790 -1.66140
H 9.30099 -6.18868 -0.20878
H 7.16660 -2.99881 4.87141
H 6.63170 -1.89989 6.09837
H 8.37905 -2.20979 5.96613
H 7.32050 -0.24792 7.42950
H 8.36707 1.13948 8.08262
H 9.03564 -0.18095 7.08116
H 7.61226 5.20383 2.64622
H 6.27422 5.48422 0.00277
H 5.55394 5.93015 3.25028
H 4.91717 4.33632 2.71152
H 4.93013 5.63441 1.62967
H 8.04919 7.05758 0.86639
H 8.26476 6.53717 -0.79424
H 9.64951 5.84385 1.69250
H 10.38898 6.24490 0.09966
H 9.69289 4.59777 0.44133
H 8.43189 2.95232 -5.35922
H 7.71920 4.12602 -4.20566
H 6.65425 2.86642 -4.94832
H 7.20742 -2.16011 -4.09242
H 9.79841 -4.95183 -6.11131
H 9.99492 -5.45944 -4.31473
H 10.96963 -4.22230 -5.14639

