%nproc=24
%mem=175gb
#p cam-b3lyp/Def2SVP td=(nstates=5)

TDDFT excited states in gaussian

0 1
Mg 8.94381 0.80856 0.67710
C 10.96820 -1.31296 2.74594
C 9.98803 3.42656 2.59813
C 6.83122 2.63101 -0.83387
C 7.21140 -2.04752 -0.31649
N 10.30368 0.91640 2.41819
C 11.06319 0.05466 3.07766
C 12.03524 0.70424 4.09879
C 11.23288 2.07080 4.35881
C 10.48432 2.17111 3.03130
C 10.20963 1.96442 5.47728
C 13.45253 0.97838 3.48386
C 14.54016 1.32347 4.50353
H 15.90061 0.85411 4.25582
N 8.83107 2.78372 0.52023
C 9.32995 3.69796 1.37845
C 8.96416 5.01099 0.82499
C 8.06706 4.79450 -0.34251
C 7.85360 3.36418 -0.24927
C 9.52123 6.30075 1.35378
C 7.48585 5.72329 -1.36513
O 6.54090 5.35538 -2.14906
C 7.99087 7.10402 -1.35893
N 7.13170 0.39171 -0.25286
C 6.43795 1.35800 -0.87969
C 5.31589 0.77564 -1.70567
C 5.55107 -0.80619 -1.69533
C 6.77054 -0.87456 -0.75002
C 3.90083 1.08272 -1.21608
C 5.64513 -1.51274 -3.07541
C 6.90079 -1.07529 -3.79467
N 9.15922 -1.32140 0.96855
C 8.30762 -2.33889 0.48525
C 8.79942 -3.61743 1.03833
C 9.89791 -3.24949 1.82980
C 10.06572 -1.83890 1.79009
C 8.21235 -4.89655 0.82543
C 10.94719 -3.73253 2.69835
O 11.35429 -4.84404 3.03384
C 11.60977 -2.48743 3.43123
C 13.10372 -2.62862 3.32783
O 13.66934 -2.56732 2.22197
O 13.63608 -2.59456 4.56307
C 15.11712 -2.71996 4.51201
H 10.07210 4.27864 3.27324
H 6.13928 3.20133 -1.45792
H 6.78521 -2.99354 -0.65722
H 12.15014 0.15809 5.02739
H 11.91200 2.91101 4.47803
H 10.10760 0.95060 5.83490
H 9.27579 2.31270 5.05575
H 10.45641 2.66325 6.28168
H 13.42135 1.91789 2.91720
H 13.77241 0.15137 2.88024
H 14.23303 1.08737 5.52963
H 14.68011 2.40717 4.50829
H 10.02334 6.15657 2.31840
H 8.66744 6.94655 1.58583
H 10.16334 6.80968 0.63173
H 7.81125 7.54987 -0.38352
H 7.52282 7.59023 -2.21707
H 9.07738 7.07976 -1.49861
H 5.36314 1.13127 -2.72762
H 4.73110 -1.33673 -1.18936
H 3.27370 1.58158 -1.97891
H 3.97267 1.69219 -0.32506
H 3.33758 0.22107 -0.86181
H 4.80548 -1.21812 -3.70971
H 5.63343 -2.59548 -3.00802
H 6.60318 -0.12979 -4.25786
H 7.18789 -1.80922 -4.54497
H 7.70531 -0.85506 -3.08341
H 9.02543 -5.58462 0.63579
H 7.50589 -4.87705 -0.00180
H 7.71422 -5.04505 1.78723
H 11.26835 -2.49724 4.46705
H 15.38804 -3.56833 5.14805
H 15.51111 -1.72755 4.80120
H 15.56315 -3.01207 3.56851

