%nproc=24
%mem=175gb
#p cam-b3lyp/Def2SVP td=(nstates=5)

TDDFT excited states in gaussian

0 1
Mg 8.94072 0.81267 0.67942
C 8.38547 1.80154 4.08426
C 7.84863 3.91010 -0.24141
C 8.98970 -0.17527 -2.33538
C 8.88598 -2.49464 1.77688
N 8.23607 2.54482 1.86069
C 8.12674 2.82635 3.15031
C 7.79490 4.31106 3.45865
C 7.10116 4.69730 2.06279
C 7.79279 3.68086 1.15660
C 5.60697 4.42153 2.03672
C 9.08227 5.16999 3.71734
C 8.82307 6.55012 4.32546
H 9.79165 7.08350 5.27931
N 8.95951 1.85059 -1.01201
C 8.49592 3.10353 -1.20307
C 8.72258 3.40387 -2.62525
C 9.20687 2.16611 -3.29467
C 9.04750 1.20607 -2.22088
C 8.55629 4.77937 -3.20297
C 9.71563 1.88941 -4.67699
O 9.85752 0.69338 -5.11541
C 9.95410 3.05974 -5.53428
N 8.72743 -1.06207 -0.19362
C 8.84318 -1.22256 -1.52357
C 8.92787 -2.68476 -1.89124
C 9.08885 -3.46746 -0.50595
C 8.97478 -2.27738 0.47186
C 7.73158 -3.24830 -2.65785
C 10.30931 -4.41902 -0.37295
C 11.59042 -3.61655 -0.36013
N 8.87023 -0.19061 2.59162
C 8.82930 -1.58299 2.82333
C 8.67157 -1.77761 4.27924
C 8.60806 -0.47443 4.79518
C 8.69812 0.46589 3.73349
C 8.55765 -3.03142 4.94340
C 8.47463 0.31948 5.99543
O 8.44741 0.07405 7.20073
C 8.19746 1.82728 5.57577
C 9.11105 2.70925 6.38199
O 10.34351 2.65383 6.22523
O 8.37376 3.62017 7.04305
C 9.23618 4.52532 7.84849
H 7.31056 4.76656 -0.64862
H 9.11411 -0.57020 -3.34633
H 8.95896 -3.49521 2.20840
H 7.09774 4.46078 4.27433
H 7.35503 5.71061 1.76260
H 5.27809 3.89956 2.92302
H 5.43473 3.81705 1.15583
H 5.05467 5.35192 1.87650
H 9.51388 5.46762 2.75304
H 9.78285 4.63253 4.32640
H 7.80406 6.64163 4.72068
H 8.86893 7.29514 3.52741
H 8.03246 5.44701 -2.50781
H 7.87569 4.68763 -4.05634
H 9.49960 5.20827 -3.54777
H 9.03047 3.62371 -5.64062
H 10.39929 2.66547 -6.44983
H 10.67033 3.72040 -5.03312
H 9.79709 -2.87882 -2.50759
H 8.22818 -4.12240 -0.30559
H 8.00925 -3.70173 -3.62810
H 7.01284 -2.45255 -2.80181
H 7.14732 -3.99275 -2.11967
H 10.36778 -5.08323 -1.23872
H 10.27398 -5.04571 0.51193
H 11.78868 -3.45118 -1.42335
H 12.39290 -4.18347 0.10750
H 11.43543 -2.63507 0.10284
H 9.18149 -2.97431 5.82548
H 8.85737 -3.85292 4.29605
H 7.48472 -3.04435 5.15296
H 7.14573 2.03512 5.77639
H 8.87662 4.47421 8.88086
H 9.18725 5.50974 7.34622
H 10.27623 4.24728 7.97276

