%nproc=24
%mem=175gb
#p cam-b3lyp/Def2SVP td=(nstates=5)

TDDFT excited states in gaussian

0 1
Mg 31.54018 2.83230 2.39878
C 31.74869 0.51855 -0.33657
C 30.74484 0.17808 4.38804
C 30.90879 4.89350 4.72692
C 31.22110 5.37773 0.03982
N 31.30826 0.67570 1.96568
C 31.47255 -0.09664 0.90227
C 31.41243 -1.61934 1.19779
C 30.54050 -1.56852 2.54538
C 30.90921 -0.16521 3.02230
C 29.04223 -1.60948 2.29467
C 32.83262 -2.23474 1.45540
C 32.88239 -3.76417 1.44439
H 34.07132 -4.41800 0.90456
N 31.40022 2.55275 4.35859
C 31.08979 1.40482 4.99669
C 31.09736 1.72759 6.43193
C 31.27570 3.19750 6.58121
C 31.17886 3.61667 5.19738
C 31.02422 0.67780 7.50245
C 31.48441 4.08124 7.77354
O 31.37661 5.35595 7.69399
C 31.72655 3.40508 9.05638
N 30.91359 4.81465 2.39538
C 30.76524 5.49478 3.54574
C 30.57719 6.97053 3.28657
C 30.87299 7.17415 1.72816
C 31.10383 5.70258 1.32001
C 29.19590 7.53379 3.61997
C 31.95219 8.22464 1.34805
C 33.31427 7.75356 1.80434
N 31.67425 2.98524 0.24781
C 31.48118 4.14201 -0.53876
C 31.56157 3.72482 -1.95365
C 31.77459 2.33944 -1.89178
C 31.80336 1.91948 -0.53446
C 31.39439 4.57554 -3.08256
C 31.97106 1.13516 -2.66624
O 32.12647 0.88644 -3.86111
C 31.83680 -0.11692 -1.69636
C 32.99446 -1.03892 -1.96517
O 34.15873 -0.68163 -1.71330
O 32.52254 -2.26189 -2.26849
C 33.63348 -3.21472 -2.53257
H 30.26763 -0.54436 5.05079
H 30.79331 5.66366 5.49308
H 31.22961 6.12741 -0.75426
H 30.90084 -2.20814 0.44589
H 30.87560 -2.31477 3.26104
H 28.80796 -1.54664 1.24238
H 28.63190 -0.76011 2.82500
H 28.60582 -2.49651 2.76269
H 33.12154 -2.04485 2.49714
H 33.54891 -1.84486 0.75859
H 31.97382 -4.20306 1.01449
H 32.88809 -4.11863 2.47799
H 30.73224 -0.29639 7.09123
H 30.19553 0.95282 8.16390
H 31.94093 0.61331 8.09249
H 30.88696 2.75294 9.28499
H 31.94065 4.20216 9.77101
H 32.60633 2.76041 8.95147
H 31.28590 7.55697 3.85834
H 29.97922 7.51446 1.18485
H 29.22878 8.37166 4.34175
H 28.58150 6.72841 4.00001
H 28.61937 7.87996 2.76383
H 31.76088 9.16821 1.86499
H 31.98888 8.44117 0.28562
H 33.33971 8.05393 2.85611
H 34.10029 8.24490 1.23442
H 33.38370 6.66004 1.77205
H 32.16812 4.30929 -3.79035
H 31.45519 5.62501 -2.80201
H 30.38538 4.29146 -3.39314
H 30.87773 -0.59219 -1.90580
H 33.46141 -3.63846 -3.52682
H 33.63343 -3.91778 -1.67849
H 34.62965 -2.80373 -2.64734

