%nproc=24
%mem=175gb
#p cam-b3lyp/Def2SVP td=(nstates=5)

TDDFT excited states in gaussian

0 1
Mg 8.94083 0.80509 0.68693
C 8.94898 -2.58488 1.86468
C 7.74357 1.70896 3.75030
C 8.49569 3.72973 -0.46013
C 9.03266 -0.46785 -2.55605
N 8.45112 -0.37623 2.49162
C 8.55300 -1.64921 2.84303
C 8.28871 -1.92423 4.34771
C 7.38331 -0.63812 4.67182
C 7.91096 0.30951 3.59652
C 5.90186 -0.86660 4.42191
C 9.60878 -1.92589 5.19590
C 9.46338 -2.49052 6.61075
H 10.57750 -3.24627 7.17646
N 8.69718 2.53244 1.63323
C 8.22048 2.71576 2.88241
C 8.21845 4.17026 3.10283
C 8.57747 4.83917 1.82283
C 8.58386 3.70238 0.92408
C 7.97419 4.78898 4.44854
C 8.85497 6.26765 1.46417
O 8.91355 6.65642 0.24423
C 8.96337 7.21532 2.58294
N 8.57278 1.52796 -1.22732
C 8.47186 2.84839 -1.46012
C 8.48290 3.14360 -2.94104
C 8.85714 1.76082 -3.65198
C 8.91263 0.84456 -2.40990
C 7.17384 3.67674 -3.52286
C 10.07430 1.77240 -4.61691
C 11.34817 2.00894 -3.83801
N 9.16924 -1.14619 -0.21216
C 9.15324 -1.45796 -1.58934
C 9.22970 -2.92885 -1.70366
C 9.26192 -3.37558 -0.37404
C 9.18889 -2.26289 0.50692
C 9.21242 -3.67086 -2.91826
C 9.33038 -4.53604 0.48464
O 9.49491 -5.74187 0.30397
C 9.00329 -4.08354 1.97280
C 10.04263 -4.68335 2.87973
O 11.23333 -4.33481 2.79396
O 9.42955 -5.40251 3.83750
C 10.41848 -6.00846 4.76844
H 7.15498 2.07152 4.59350
H 8.45241 4.72421 -0.91027
H 9.16480 -0.93670 -3.53349
H 7.73307 -2.83138 4.55294
H 7.59497 -0.24572 5.66307
H 5.71486 -1.82153 3.95364
H 5.58476 -0.05932 3.77478
H 5.33959 -0.74567 5.35227
H 9.88257 -0.89004 5.43420
H 10.39313 -2.44380 4.67899
H 8.52200 -3.03796 6.74136
H 9.38728 -1.65552 7.31148
H 7.57503 4.05692 5.16138
H 7.16451 5.51614 4.32393
H 8.85375 5.30334 4.84156
H 8.03989 7.20354 3.15697
H 9.25203 8.16711 2.13278
H 9.75687 6.87239 3.25628
H 9.23998 3.87936 -3.18307
H 8.03385 1.38956 -4.27983
H 7.28783 4.65238 -4.03198
H 6.44867 3.74760 -2.72308
H 6.67681 3.01178 -4.22713
H 9.98678 2.59838 -5.32701
H 10.17583 0.86004 -5.19508
H 11.37454 3.09767 -3.73281
H 12.21009 1.64510 -4.39366
H 11.27862 1.58203 -2.83075
H 9.97038 -4.43730 -2.82568
H 9.39665 -3.03025 -3.77817
H 8.18702 -4.04970 -2.90080
H 7.99942 -4.43799 2.20984
H 10.22901 -7.08627 4.77858
H 10.29856 -5.46691 5.72557
H 11.46238 -5.97995 4.47875

