%nproc=24
%mem=175gb
#p cam-b3lyp/Def2SVP td=(nstates=5)

TDDFT excited states in gaussian

0 1
Mg 0.00000 0.00000 0.00000
C -0.21700 -2.21800 2.80100
C -1.25500 2.44200 2.02600
C -0.24500 1.85000 -2.56400
C 0.14600 -2.82400 -2.03700
N -0.61700 -0.00900 2.12600
C -0.59400 -0.90800 3.10500
C -0.93600 -0.30900 4.50200
C -1.77300 0.96400 4.03200
C -1.15500 1.16800 2.66000
C -3.26300 0.68500 3.86300
C 0.34500 0.11000 5.29900
C 0.12400 0.39700 6.78700
H 1.16800 0.03300 7.73300
N -0.18500 1.96100 -0.15200
C -0.70300 2.80000 0.77700
C -0.62000 4.15600 0.19300
C -0.18700 4.01500 -1.22500
C -0.21400 2.58300 -1.38000
C -0.88700 5.40600 0.97400
C 0.18100 5.01300 -2.27700
O 0.30300 4.69000 -3.50800
C 0.31000 6.41400 -1.83700
N -0.26500 -0.41300 -2.02900
C -0.27900 0.56900 -2.93700
C -0.19600 0.02400 -4.33200
C 0.12400 -1.53300 -4.18000
C 0.08600 -1.63200 -2.63500
C -1.45100 0.20500 -5.19700
C 1.37300 -2.07000 -4.92300
C 2.62600 -1.49000 -4.30600
N 0.15000 -2.14400 0.30300
C 0.17300 -3.13600 -0.68800
C 0.17300 -4.43800 0.00400
C 0.13300 -4.11100 1.35800
C 0.08300 -2.69500 1.50200
C 0.14900 -5.71500 -0.62300
C 0.09600 -4.62900 2.71600
O 0.20800 -5.74700 3.22100
C -0.25500 -3.42800 3.70100
C 0.71700 -3.48200 4.84800
O 1.93100 -3.25500 4.66900
O 0.03800 -3.55600 6.00300
C 0.94300 -3.58300 7.18300
H -1.85900 3.22000 2.49700
H -0.21800 2.45300 -3.47400
H 0.27600 -3.74700 -2.60500
H -1.55400 -0.94900 5.13200
H -1.58500 1.83100 4.66500
H -3.48400 -0.37700 3.96900
H -3.51100 1.02700 2.85800
H -3.85200 1.30100 4.54300
H 0.66900 1.09600 4.96600
H 1.13000 -0.63900 5.18900
H -0.84400 0.02600 7.12500
H 0.06200 1.47700 6.92100
H -1.34400 5.18600 1.93800
H -1.65100 5.96300 0.43200
H 0.00700 6.02000 1.08400
H -0.63500 6.74400 -1.40500
H 0.66500 6.97000 -2.70400
H 1.04800 6.46600 -1.03600
H 0.60800 0.50100 -4.89100
H -0.69200 -2.15600 -4.54700
H -1.26700 0.74000 -6.12900
H -2.20400 0.71400 -4.59600
H -1.96700 -0.72000 -5.45300
H 1.35600 -1.75900 -5.96700
H 1.45200 -3.15700 -4.90200
H 2.71400 -0.52200 -4.79800
H 3.48700 -2.12100 -4.52900
H 2.49500 -1.30300 -3.24000
H 0.86700 -6.33300 -0.08400
H 0.40400 -5.64200 -1.68000
H -0.89100 -5.99900 -0.46300
H -1.28300 -3.58100 4.02800
H 0.69800 -4.47800 7.75500
H 0.83300 -2.61900 7.68000
H 2.00000 -3.75400 6.97600
Mg 31.53947 2.84606 2.39187
C 30.91561 5.52582 4.69595
C 30.65331 4.98945 -0.10917
C 31.64400 0.39043 0.38528
C 31.26334 0.65147 5.08505
N 30.88837 4.95976 2.41606
C 30.74772 5.89369 3.34468
C 30.48685 7.31934 2.78877
C 29.86669 6.91230 1.36448
C 30.53406 5.54994 1.18765
C 28.36156 6.70581 1.40030
C 31.80914 8.14782 2.62390
C 31.60408 9.64470 2.38086
H 32.56507 10.58139 2.95668
N 31.67683 2.81004 0.41238
C 31.28997 3.77525 -0.44785
C 31.58445 3.25711 -1.79283
C 32.02415 1.84120 -1.66416
C 31.77331 1.61430 -0.25501
C 31.51507 4.10963 -3.02645
C 32.56700 0.85081 -2.64937
O 32.65892 -0.39653 -2.36914
C 32.90043 1.36925 -3.98411
N 31.25557 0.80255 2.64839
C 31.41072 -0.05127 1.62133
C 31.42838 -1.48327 2.10032
C 31.49557 -1.40173 3.69607
C 31.41143 0.13004 3.87495
C 30.23170 -2.33858 1.68464
C 32.65631 -2.16446 4.39149
C 33.97821 -1.51566 4.04944
N 31.34438 3.03141 4.53562
C 31.21867 1.98406 5.47441
C 30.99755 2.60758 6.79530
C 30.98690 3.98480 6.52765
C 31.16706 4.20344 5.13509
C 30.79086 1.91157 8.01963
C 30.85358 5.30298 7.10499
O 30.76903 5.74538 8.24993
C 30.67506 6.35496 5.92692
C 31.60569 7.50740 6.18830
O 32.83814 7.34348 6.16022
O 30.89590 8.65020 6.21248
C 31.77678 9.82312 6.45770
H 30.17825 5.50633 -0.94346
H 31.78330 -0.48952 -0.24697
H 31.26552 0.03868 5.98902
H 29.76970 7.90292 3.35348
H 30.18656 7.59776 0.58397
H 27.97245 6.75164 2.40659
H 28.18862 5.72720 0.97199
H 27.86736 7.41823 0.73354
H 32.29129 7.86826 1.67832
H 32.45650 8.00398 3.46702
H 30.57791 9.96162 2.60329
H 31.71981 9.84182 1.31233
H 31.00369 5.06011 -2.83033
H 30.86202 3.59139 -3.73696
H 32.49243 4.26031 -3.48984
H 32.01364 1.81185 -4.43150
H 33.35638 0.53262 -4.51706
H 33.63309 2.17638 -3.87293
H 32.30753 -2.00157 1.73761
H 30.59352 -1.82277 4.16392
H 30.51924 -3.25001 1.12724
H 29.56344 -1.72641 1.09370
H 29.58824 -2.66066 2.50160
H 32.70975 -3.19142 4.02182
H 32.55441 -2.21545 5.47039
H 34.22386 -1.95363 3.07737
H 34.73079 -1.76314 4.79538
H 33.86055 -0.43553 3.90407
H 31.38433 2.41760 8.76945
H 31.06843 0.86316 7.93272
H 29.71191 2.04206 8.13841
H 29.62972 6.66608 5.92115
H 31.37757 10.34507 7.33285
H 31.80029 10.38360 5.50425
H 32.79478 9.62797 6.77399

