%nproc=24
%mem=175gb
#p cam-b3lyp/Def2SVP td=(nstates=5)

TDDFT excited states in gaussian

0 1
Mg 0.00000 0.00000 0.00000
C -0.21700 -2.21800 2.80100
C -1.25500 2.44200 2.02600
C -0.24500 1.85000 -2.56400
C 0.14600 -2.82400 -2.03700
N -0.61700 -0.00900 2.12600
C -0.59400 -0.90800 3.10500
C -0.93600 -0.30900 4.50200
C -1.77300 0.96400 4.03200
C -1.15500 1.16800 2.66000
C -3.26300 0.68500 3.86300
C 0.34500 0.11000 5.29900
C 0.12400 0.39700 6.78700
H 1.16800 0.03300 7.73300
N -0.18500 1.96100 -0.15200
C -0.70300 2.80000 0.77700
C -0.62000 4.15600 0.19300
C -0.18700 4.01500 -1.22500
C -0.21400 2.58300 -1.38000
C -0.88700 5.40600 0.97400
C 0.18100 5.01300 -2.27700
O 0.30300 4.69000 -3.50800
C 0.31000 6.41400 -1.83700
N -0.26500 -0.41300 -2.02900
C -0.27900 0.56900 -2.93700
C -0.19600 0.02400 -4.33200
C 0.12400 -1.53300 -4.18000
C 0.08600 -1.63200 -2.63500
C -1.45100 0.20500 -5.19700
C 1.37300 -2.07000 -4.92300
C 2.62600 -1.49000 -4.30600
N 0.15000 -2.14400 0.30300
C 0.17300 -3.13600 -0.68800
C 0.17300 -4.43800 0.00400
C 0.13300 -4.11100 1.35800
C 0.08300 -2.69500 1.50200
C 0.14900 -5.71500 -0.62300
C 0.09600 -4.62900 2.71600
O 0.20800 -5.74700 3.22100
C -0.25500 -3.42800 3.70100
C 0.71700 -3.48200 4.84800
O 1.93100 -3.25500 4.66900
O 0.03800 -3.55600 6.00300
C 0.94300 -3.58300 7.18300
H -1.85900 3.22000 2.49700
H -0.21800 2.45300 -3.47400
H 0.27600 -3.74700 -2.60500
H -1.55400 -0.94900 5.13200
H -1.58500 1.83100 4.66500
H -3.48400 -0.37700 3.96900
H -3.51100 1.02700 2.85800
H -3.85200 1.30100 4.54300
H 0.66900 1.09600 4.96600
H 1.13000 -0.63900 5.18900
H -0.84400 0.02600 7.12500
H 0.06200 1.47700 6.92100
H -1.34400 5.18600 1.93800
H -1.65100 5.96300 0.43200
H 0.00700 6.02000 1.08400
H -0.63500 6.74400 -1.40500
H 0.66500 6.97000 -2.70400
H 1.04800 6.46600 -1.03600
H 0.60800 0.50100 -4.89100
H -0.69200 -2.15600 -4.54700
H -1.26700 0.74000 -6.12900
H -2.20400 0.71400 -4.59600
H -1.96700 -0.72000 -5.45300
H 1.35600 -1.75900 -5.96700
H 1.45200 -3.15700 -4.90200
H 2.71400 -0.52200 -4.79800
H 3.48700 -2.12100 -4.52900
H 2.49500 -1.30300 -3.24000
H 0.86700 -6.33300 -0.08400
H 0.40400 -5.64200 -1.68000
H -0.89100 -5.99900 -0.46300
H -1.28300 -3.58100 4.02800
H 0.69800 -4.47800 7.75500
H 0.83300 -2.61900 7.68000
H 2.00000 -3.75400 6.97600
Mg 15.77261 1.42431 1.20460
C 15.55177 -0.79841 4.01348
C 14.51592 3.86588 3.22798
C 15.53076 3.28315 -1.35541
C 15.91257 -1.39534 -0.83885
N 15.15336 1.41301 3.32796
C 15.17235 0.52683 4.31217
C 14.83870 1.11170 5.71080
C 13.99404 2.39381 5.24004
C 14.61174 2.59962 3.85846
C 12.51238 2.10640 5.06279
C 16.12490 1.53139 6.50551
C 15.89726 1.82075 7.99084
H 16.94687 1.45862 8.93934
N 15.58981 3.39525 1.06125
C 15.07868 4.23448 1.98630
C 15.14845 5.57857 1.39240
C 15.59005 5.44392 -0.02237
C 15.56679 4.00245 -0.16972
C 14.88963 6.83037 2.17944
C 15.95841 6.44708 -1.07317
O 16.08266 6.11674 -2.30535
C 16.07782 7.84452 -0.63227
N 15.51480 1.01330 -0.81702
C 15.49505 2.00324 -1.72672
C 15.57624 1.45493 -3.13141
C 15.89969 -0.10257 -2.96662
C 15.85950 -0.20778 -1.42626
C 14.32049 1.62603 -3.98593
C 17.15000 -0.64443 -3.71213
C 18.40570 -0.06009 -3.10620
N 15.92620 -0.70950 1.50679
C 15.94332 -1.71267 0.51309
C 15.94305 -3.01547 1.20961
C 15.90222 -2.67737 2.57068
C 15.85831 -1.26400 2.71194
C 15.92935 -4.29362 0.58330
C 15.87555 -3.19495 3.91979
O 15.98013 -4.31248 4.42370
C 15.51977 -2.00434 4.91088
C 16.49088 -2.04951 6.05867
O 17.70125 -1.83378 5.87139
O 15.80476 -2.12378 7.21370
C 16.72436 -2.15985 8.38197
H 13.91777 4.64070 3.70835
H 15.55856 3.88000 -2.27000
H 16.05431 -2.31975 -1.40281
H 14.22700 0.47265 6.33627
H 14.19065 3.25206 5.87731
H 12.29044 1.05491 5.16887
H 12.26386 2.44686 4.06611
H 11.92406 2.72383 5.74762
H 16.44626 2.52502 6.16762
H 16.89796 0.79601 6.39496
H 14.92312 1.45491 8.33748
H 15.84162 2.90327 8.12894
H 14.42518 6.60775 3.14801
H 14.12616 7.39759 1.63608
H 15.78119 7.45170 2.28778
H 15.13478 8.16807 -0.19816
H 16.43449 8.39653 -1.50402
H 16.82623 7.89667 0.16634
H 16.38088 1.92441 -3.68390
H 15.08069 -0.73117 -3.34601
H 14.50633 2.17108 -4.93063
H 13.57164 2.13537 -3.39404
H 13.81371 0.70016 -4.25265
H 17.13389 -0.32822 -4.75803
H 17.22231 -1.72688 -3.70403
H 18.48793 0.91308 -3.59942
H 19.26603 -0.68858 -3.32727
H 18.27616 0.12399 -2.03336
H 16.64022 -4.90979 1.11762
H 16.17968 -4.22144 -0.47306
H 14.88475 -4.57604 0.73924
H 14.48999 -2.14866 5.23997
H 16.47577 -3.05742 8.95665
H 16.59954 -1.18545 8.89061
H 17.77811 -2.31955 8.18561
158

Mg 0.00000 0.00000 0.00000
C -0.21700 -2.21800 2.80100
C -1.25500 2.44200 2.02600
C -0.24500 1.85000 -2.56400
C 0.14600 -2.82400 -2.03700
N -0.61700 -0.00900 2.12600
C -0.59400 -0.90800 3.10500
C -0.93600 -0.30900 4.50200
C -1.77300 0.96400 4.03200
C -1.15500 1.16800 2.66000
C -3.26300 0.68500 3.86300
C 0.34500 0.11000 5.29900
C 0.12400 0.39700 6.78700
H 1.16800 0.03300 7.73300
N -0.18500 1.96100 -0.15200
C -0.70300 2.80000 0.77700
C -0.62000 4.15600 0.19300
C -0.18700 4.01500 -1.22500
C -0.21400 2.58300 -1.38000
C -0.88700 5.40600 0.97400
C 0.18100 5.01300 -2.27700
O 0.30300 4.69000 -3.50800
C 0.31000 6.41400 -1.83700
N -0.26500 -0.41300 -2.02900
C -0.27900 0.56900 -2.93700
C -0.19600 0.02400 -4.33200
C 0.12400 -1.53300 -4.18000
C 0.08600 -1.63200 -2.63500
C -1.45100 0.20500 -5.19700
C 1.37300 -2.07000 -4.92300
C 2.62600 -1.49000 -4.30600
N 0.15000 -2.14400 0.30300
C 0.17300 -3.13600 -0.68800
C 0.17300 -4.43800 0.00400
C 0.13300 -4.11100 1.35800
C 0.08300 -2.69500 1.50200
C 0.14900 -5.71500 -0.62300
C 0.09600 -4.62900 2.71600
O 0.20800 -5.74700 3.22100
C -0.25500 -3.42800 3.70100
C 0.71700 -3.48200 4.84800
O 1.93100 -3.25500 4.66900
O 0.03800 -3.55600 6.00300
C 0.94300 -3.58300 7.18300
H -1.85900 3.22000 2.49700
H -0.21800 2.45300 -3.47400
H 0.27600 -3.74700 -2.60500
H -1.55400 -0.94900 5.13200
H -1.58500 1.83100 4.66500
H -3.48400 -0.37700 3.96900
H -3.51100 1.02700 2.85800
H -3.85200 1.30100 4.54300
H 0.66900 1.09600 4.96600
H 1.13000 -0.63900 5.18900
H -0.84400 0.02600 7.12500
H 0.06200 1.47700 6.92100
H -1.34400 5.18600 1.93800
H -1.65100 5.96300 0.43200
H 0.00700 6.02000 1.08400
H -0.63500 6.74400 -1.40500
H 0.66500 6.97000 -2.70400
H 1.04800 6.46600 -1.03600
H 0.60800 0.50100 -4.89100
H -0.69200 -2.15600 -4.54700
H -1.26700 0.74000 -6.12900
H -2.20400 0.71400 -4.59600
H -1.96700 -0.72000 -5.45300
H 1.35600 -1.75900 -5.96700
H 1.45200 -3.15700 -4.90200
H 2.71400 -0.52200 -4.79800
H 3.48700 -2.12100 -4.52900
H 2.49500 -1.30300 -3.24000
H 0.86700 -6.33300 -0.08400
H 0.40400 -5.64200 -1.68000
H -0.89100 -5.99900 -0.46300
H -1.28300 -3.58100 4.02800
H 0.69800 -4.47800 7.75500
H 0.83300 -2.61900 7.68000
H 2.00000 -3.75400 6.97600
Mg 15.77263 1.42390 1.20486
C 15.57838 -0.97237 3.86930
C 14.51650 3.72693 3.38495
C 15.50732 3.43904 -1.23158
C 15.91367 -1.26074 -1.01291
N 15.16581 1.27583 3.32668
C 15.19461 0.32953 4.25298
C 14.86641 0.82350 5.68750
C 14.01313 2.12850 5.30312
C 14.62182 2.42397 3.93387
C 12.53180 1.84547 5.11630
C 16.15527 1.19869 6.49996
C 15.93495 1.39280 8.00181
H 16.99172 0.97687 8.91980
N 15.57992 3.39902 1.18698
C 15.07032 4.17578 2.16588
C 15.13044 5.55493 1.65746
C 15.56441 5.51184 0.23460
C 15.54694 4.08241 -0.00314
C 14.87044 6.75339 2.52322
C 15.92203 6.58100 -0.75293
O 16.04062 6.32953 -2.00414
C 16.03756 7.94847 -0.22553
N 15.50495 1.13974 -0.83718
C 15.47534 2.18489 -1.68258
C 15.55088 1.72654 -3.11945
C 15.88245 0.16338 -3.05490
C 15.85172 -0.03883 -1.52403
C 14.28940 1.94488 -3.95455
C 17.13088 -0.32425 -3.83996
C 18.38739 0.22700 -3.20536
N 15.93780 -0.72392 1.37117
C 15.95375 -1.66242 0.31616
C 15.96354 -3.00649 0.92921
C 15.92908 -2.75498 2.30908
C 15.87948 -1.35354 2.53934
C 15.95208 -4.24271 0.22370
C 15.91265 -3.35662 3.62303
O 16.02530 -4.50313 4.05495
C 15.55716 -2.23256 4.68911
C 16.53514 -2.34511 5.82639
O 17.74339 -2.11200 5.64640
O 15.85610 -2.49537 6.97822
C 16.78264 -2.60038 8.13680
H 13.91760 4.46698 3.91648
H 15.52704 4.09243 -2.10689
H 16.05638 -2.14709 -1.63476
H 14.26132 0.14330 6.27484
H 14.20949 2.94588 5.99210
H 12.31533 0.78830 5.15715
H 12.27592 2.24678 4.14444
H 11.94464 2.41562 5.84191
H 16.47008 2.21321 6.22358
H 16.93106 0.47557 6.33904
H 14.96454 1.00103 8.33008
H 15.87513 2.46418 8.20814
H 14.41267 6.46791 3.47839
H 14.10122 7.34990 2.02090
H 15.75975 7.37108 2.66557
H 15.09559 8.23936 0.23330
H 16.38661 8.55605 -1.06272
H 16.79036 7.95394 0.57064
H 16.35012 2.23387 -3.64570
H 15.06416 -0.44414 -3.46862
H 14.46722 2.54925 -4.86405
H 13.54167 2.41221 -3.32762
H 13.78535 1.03514 -4.27627
H 17.10723 0.05712 -4.86376
H 17.20822 -1.40469 -3.90047
H 18.46226 1.22970 -3.63674
H 19.24930 -0.38204 -3.47033
H 18.26325 0.34251 -2.12236
H 16.66888 -4.88777 0.71421
H 16.19592 -4.10291 -0.82738
H 14.90972 -4.53957 0.36730
H 14.52999 -2.40243 5.01413
H 16.54154 -3.53358 8.65516
H 16.65630 -1.66057 8.70650
H 17.83596 -2.74216 7.92496
158

Mg 0.00000 0.00000 0.00000
C -0.21700 -2.21800 2.80100
C -1.25500 2.44200 2.02600
C -0.24500 1.85000 -2.56400
C 0.14600 -2.82400 -2.03700
N -0.61700 -0.00900 2.12600
C -0.59400 -0.90800 3.10500
C -0.93600 -0.30900 4.50200
C -1.77300 0.96400 4.03200
C -1.15500 1.16800 2.66000
C -3.26300 0.68500 3.86300
C 0.34500 0.11000 5.29900
C 0.12400 0.39700 6.78700
H 1.16800 0.03300 7.73300
N -0.18500 1.96100 -0.15200
C -0.70300 2.80000 0.77700
C -0.62000 4.15600 0.19300
C -0.18700 4.01500 -1.22500
C -0.21400 2.58300 -1.38000
C -0.88700 5.40600 0.97400
C 0.18100 5.01300 -2.27700
O 0.30300 4.69000 -3.50800
C 0.31000 6.41400 -1.83700
N -0.26500 -0.41300 -2.02900
C -0.27900 0.56900 -2.93700
C -0.19600 0.02400 -4.33200
C 0.12400 -1.53300 -4.18000
C 0.08600 -1.63200 -2.63500
C -1.45100 0.20500 -5.19700
C 1.37300 -2.07000 -4.92300
C 2.62600 -1.49000 -4.30600
N 0.15000 -2.14400 0.30300
C 0.17300 -3.13600 -0.68800
C 0.17300 -4.43800 0.00400
C 0.13300 -4.11100 1.35800
C 0.08300 -2.69500 1.50200
C 0.14900 -5.71500 -0.62300
C 0.09600 -4.62900 2.71600
O 0.20800 -5.74700 3.22100
C -0.25500 -3.42800 3.70100
C 0.71700 -3.48200 4.84800
O 1.93100 -3.25500 4.66900
O 0.03800 -3.55600 6.00300
C 0.94300 -3.58300 7.18300
H -1.85900 3.22000 2.49700
H -0.21800 2.45300 -3.47400
H 0.27600 -3.74700 -2.60500
H -1.55400 -0.94900 5.13200
H -1.58500 1.83100 4.66500
H -3.48400 -0.37700 3.96900
H -3.51100 1.02700 2.85800
H -3.85200 1.30100 4.54300
H 0.66900 1.09600 4.96600
H 1.13000 -0.63900 5.18900
H -0.84400 0.02600 7.12500
H 0.06200 1.47700 6.92100
H -1.34400 5.18600 1.93800
H -1.65100 5.96300 0.43200
H 0.00700 6.02000 1.08400
H -0.63500 6.74400 -1.40500
H 0.66500 6.97000 -2.70400
H 1.04800 6.46600 -1.03600
H 0.60800 0.50100 -4.89100
H -0.69200 -2.15600 -4.54700
H -1.26700 0.74000 -6.12900
H -2.20400 0.71400 -4.59600
H -1.96700 -0.72000 -5.45300
H 1.35600 -1.75900 -5.96700
H 1.45200 -3.15700 -4.90200
H 2.71400 -0.52200 -4.79800
H 3.48700 -2.12100 -4.52900
H 2.49500 -1.30300 -3.24000
H 0.86700 -6.33300 -0.08400
H 0.40400 -5.64200 -1.68000
H -0.89100 -5.99900 -0.46300
H -1.28300 -3.58100 4.02800
H 0.69800 -4.47800 7.75500
H 0.83300 -2.61900 7.68000
H 2.00000 -3.75400 6.97600
Mg 15.77265 1.42346 1.20510
C 15.60496 -1.13677 3.71431
C 14.51864 3.57837 3.53285
C 15.48388 3.58670 -1.09804
C 15.91315 -1.11545 -1.17815
N 15.17888 1.13906 3.31669
C 15.21743 0.13646 4.18136
C 14.89532 0.53747 5.64594
C 14.03381 1.85984 5.34926
C 14.63316 2.24397 3.99800
C 12.55274 1.58179 5.15315
C 16.18715 0.86715 6.47330
C 15.97468 0.96520 7.98558
H 17.03868 0.49754 8.86970
N 15.57074 3.39481 1.31275
C 15.06328 4.10585 2.34144
C 15.11409 5.51456 1.92060
C 15.53996 5.56331 0.49548
C 15.52769 4.15163 0.16825
C 14.85362 6.65481 2.86156
C 15.88689 6.69430 -0.42469
O 15.99936 6.52272 -1.68990
C 15.99920 8.02641 0.18717
N 15.49440 1.26714 -0.84928
C 15.45506 2.36330 -1.62698
C 15.52434 1.99673 -3.09027
C 15.86348 0.43427 -3.12616
C 15.84259 0.13591 -1.61093
C 14.25703 2.26096 -3.90298
C 17.10955 0.00325 -3.94726
C 18.36717 0.51967 -3.28614
N 15.94868 -0.72972 1.23484
C 15.96281 -1.59983 0.12273
C 15.98236 -2.97976 0.64982
C 15.95477 -2.81582 2.04296
C 15.90006 -1.43194 2.36133
C 15.97249 -4.16914 -0.13210
C 15.94876 -3.49909 3.31647
O 16.06921 -4.66995 3.67466
C 15.59431 -2.44618 4.45319
C 16.57940 -2.62526 5.57571
O 17.78550 -2.37530 5.40409
O 15.90778 -2.85114 6.71951
C 16.84153 -3.02429 7.86405
H 13.91944 4.28050 4.11324
H 15.49550 4.29401 -1.93054
H 16.05631 -1.96015 -1.85539
H 14.29679 -0.18136 6.19258
H 14.23042 2.63317 6.08727
H 12.34138 0.52308 5.12851
H 12.28936 2.04223 4.20993
H 11.96720 2.10219 5.91647
H 16.49566 1.89861 6.25964
H 16.96530 0.15946 6.26285
H 15.00801 0.54872 8.29387
H 15.91113 2.02115 8.25933
H 14.40273 6.30748 3.79936
H 14.07874 7.27795 2.40207
H 15.74088 7.26672 3.03763
H 15.05858 8.28314 0.66861
H 16.34056 8.68722 -0.61200
H 16.75658 7.98546 0.97793
H 16.31815 2.54015 -3.58791
H 15.04560 -0.15004 -3.57281
H 14.42677 2.92228 -4.77356
H 13.51081 2.68416 -3.24374
H 13.75530 1.37079 -4.27859
H 17.07818 0.44821 -4.94485
H 17.19151 -1.07083 -4.07615
H 18.43492 1.54790 -3.65389
H 19.23033 -0.06719 -3.59371
H 18.24881 0.56613 -2.19734
H 16.69509 -4.84025 0.31283
H 16.20956 -3.96222 -1.17361
H 14.93236 -4.47963 -0.00173
H 14.56985 -2.64128 4.77253
H 16.60775 -3.98947 8.32390
H 16.71417 -2.12287 8.49251
H 17.89423 -3.14723 7.63788
158

Mg 0.00000 0.00000 0.00000
C -0.21700 -2.21800 2.80100
C -1.25500 2.44200 2.02600
C -0.24500 1.85000 -2.56400
C 0.14600 -2.82400 -2.03700
N -0.61700 -0.00900 2.12600
C -0.59400 -0.90800 3.10500
C -0.93600 -0.30900 4.50200
C -1.77300 0.96400 4.03200
C -1.15500 1.16800 2.66000
C -3.26300 0.68500 3.86300
C 0.34500 0.11000 5.29900
C 0.12400 0.39700 6.78700
H 1.16800 0.03300 7.73300
N -0.18500 1.96100 -0.15200
C -0.70300 2.80000 0.77700
C -0.62000 4.15600 0.19300
C -0.18700 4.01500 -1.22500
C -0.21400 2.58300 -1.38000
C -0.88700 5.40600 0.97400
C 0.18100 5.01300 -2.27700
O 0.30300 4.69000 -3.50800
C 0.31000 6.41400 -1.83700
N -0.26500 -0.41300 -2.02900
C -0.27900 0.56900 -2.93700
C -0.19600 0.02400 -4.33200
C 0.12400 -1.53300 -4.18000
C 0.08600 -1.63200 -2.63500
C -1.45100 0.20500 -5.19700
C 1.37300 -2.07000 -4.92300
C 2.62600 -1.49000 -4.30600
N 0.15000 -2.14400 0.30300
C 0.17300 -3.13600 -0.68800
C 0.17300 -4.43800 0.00400
C 0.13300 -4.11100 1.35800
C 0.08300 -2.69500 1.50200
C 0.14900 -5.71500 -0.62300
C 0.09600 -4.62900 2.71600
O 0.20800 -5.74700 3.22100
C -0.25500 -3.42800 3.70100
C 0.71700 -3.48200 4.84800
O 1.93100 -3.25500 4.66900
O 0.03800 -3.55600 6.00300
C 0.94300 -3.58300 7.18300
H -1.85900 3.22000 2.49700
H -0.21800 2.45300 -3.47400
H 0.27600 -3.74700 -2.60500
H -1.55400 -0.94900 5.13200
H -1.58500 1.83100 4.66500
H -3.48400 -0.37700 3.96900
H -3.51100 1.02700 2.85800
H -3.85200 1.30100 4.54300
H 0.66900 1.09600 4.96600
H 1.13000 -0.63900 5.18900
H -0.84400 0.02600 7.12500
H 0.06200 1.47700 6.92100
H -1.34400 5.18600 1.93800
H -1.65100 5.96300 0.43200
H 0.00700 6.02000 1.08400
H -0.63500 6.74400 -1.40500
H 0.66500 6.97000 -2.70400
H 1.04800 6.46600 -1.03600
H 0.60800 0.50100 -4.89100
H -0.69200 -2.15600 -4.54700
H -1.26700 0.74000 -6.12900
H -2.20400 0.71400 -4.59600
H -1.96700 -0.72000 -5.45300
H 1.35600 -1.75900 -5.96700
H 1.45200 -3.15700 -4.90200
H 2.71400 -0.52200 -4.79800
H 3.48700 -2.12100 -4.52900
H 2.49500 -1.30300 -3.24000
H 0.86700 -6.33300 -0.08400
H 0.40400 -5.64200 -1.68000
H -0.89100 -5.99900 -0.46300
H -1.28300 -3.58100 4.02800
H 0.69800 -4.47800 7.75500
H 0.83300 -2.61900 7.68000
H 2.00000 -3.75400 6.97600
Mg 15.77267 1.42302 1.20530
C 15.63139 -1.29095 3.54912
C 14.52233 3.42081 3.67108
C 15.46054 3.72554 -0.95534
C 15.91099 -0.96004 -1.33391
N 15.19252 1.00326 3.29802
C 15.24072 -0.05160 4.09759
C 14.92530 0.25478 5.58628
C 14.05600 1.58892 5.37826
C 14.64569 2.06035 4.05059
C 12.57511 1.31642 5.17320
C 16.22039 0.53811 6.42562
C 16.01628 0.53967 7.94223
H 17.08756 0.02255 8.78924
N 15.56232 3.38265 1.43806
C 15.05759 4.02496 2.51228
C 15.09945 5.45762 2.18075
C 15.51679 5.59813 0.75921
C 15.50911 4.20981 0.34376
C 14.83921 6.53504 3.19311
C 15.85315 6.78653 -0.08978
O 15.95903 6.69553 -1.36388
C 15.96288 8.07800 0.60416
N 15.48319 1.39500 -0.85328
C 15.43427 2.53775 -1.56014
C 15.49672 2.26440 -3.04398
C 15.84284 0.70901 -3.18011
C 15.83214 0.31572 -1.68659
C 14.22350 2.57300 -3.83142
C 17.08609 0.33675 -4.03360
C 18.34514 0.81675 -3.34820
N 15.95879 -0.72686 1.09836
C 15.97046 -1.52513 -0.06642
C 15.99943 -2.93540 0.37256
C 15.97919 -2.85966 1.77340
C 15.91997 -1.49886 2.17862
C 15.99048 -4.07322 -0.48266
C 15.98374 -3.62179 3.00134
O 16.11167 -4.81228 3.28439
C 15.63108 -2.64433 4.20408
C 16.62349 -2.88886 5.30764
O 17.82741 -2.62259 5.14545
O 15.95959 -3.18964 6.43863
C 16.90077 -3.42990 7.56481
H 13.92329 4.08201 4.29786
H 15.46406 4.48392 -1.74168
H 16.05410 -1.75970 -2.06380
H 14.33328 -0.50001 6.08984
H 14.25333 2.31520 6.16243
H 12.36849 0.26033 5.08307
H 12.30412 1.83404 4.26233
H 11.99163 1.78481 5.97101
H 16.52290 1.58249 6.27567
H 17.00056 -0.15105 6.16672
H 15.05336 0.09981 8.22900
H 15.94946 1.57596 8.28230
H 14.39540 6.12711 4.10964
H 14.05882 7.18202 2.77808
H 15.72466 7.13904 3.40248
H 15.02390 8.29924 1.10600
H 16.29653 8.78952 -0.15366
H 16.72503 7.99110 1.38658
H 16.28512 2.84202 -3.51077
H 15.02508 0.14993 -3.65816
H 14.38512 3.28867 -4.65953
H 13.47920 2.95014 -3.14271
H 13.72370 1.70577 -4.25959
H 17.04686 0.84349 -5.00098
H 17.17224 -0.72667 -4.23035
H 18.40601 1.86642 -3.65081
H 19.20918 0.25471 -3.69690
H 18.23291 0.79396 -2.25800
H 16.71875 -4.76741 -0.08490
H 16.22053 -3.79994 -1.51037
H 14.95257 -4.39646 -0.36638
H 14.60939 -2.86423 4.51615
H 16.67412 -4.42327 7.96422
H 16.77293 -2.57048 8.24951
H 17.95270 -3.53312 7.32553
158

Mg 0.00000 0.00000 0.00000
C -0.21700 -2.21800 2.80100
C -1.25500 2.44200 2.02600
C -0.24500 1.85000 -2.56400
C 0.14600 -2.82400 -2.03700
N -0.61700 -0.00900 2.12600
C -0.59400 -0.90800 3.10500
C -0.93600 -0.30900 4.50200
C -1.77300 0.96400 4.03200
C -1.15500 1.16800 2.66000
C -3.26300 0.68500 3.86300
C 0.34500 0.11000 5.29900
C 0.12400 0.39700 6.78700
H 1.16800 0.03300 7.73300
N -0.18500 1.96100 -0.15200
C -0.70300 2.80000 0.77700
C -0.62000 4.15600 0.19300
C -0.18700 4.01500 -1.22500
C -0.21400 2.58300 -1.38000
C -0.88700 5.40600 0.97400
C 0.18100 5.01300 -2.27700
O 0.30300 4.69000 -3.50800
C 0.31000 6.41400 -1.83700
N -0.26500 -0.41300 -2.02900
C -0.27900 0.56900 -2.93700
C -0.19600 0.02400 -4.33200
C 0.12400 -1.53300 -4.18000
C 0.08600 -1.63200 -2.63500
C -1.45100 0.20500 -5.19700
C 1.37300 -2.07000 -4.92300
C 2.62600 -1.49000 -4.30600
N 0.15000 -2.14400 0.30300
C 0.17300 -3.13600 -0.68800
C 0.17300 -4.43800 0.00400
C 0.13300 -4.11100 1.35800
C 0.08300 -2.69500 1.50200
C 0.14900 -5.71500 -0.62300
C 0.09600 -4.62900 2.71600
O 0.20800 -5.74700 3.22100
C -0.25500 -3.42800 3.70100
C 0.71700 -3.48200 4.84800
O 1.93100 -3.25500 4.66900
O 0.03800 -3.55600 6.00300
C 0.94300 -3.58300 7.18300
H -1.85900 3.22000 2.49700
H -0.21800 2.45300 -3.47400
H 0.27600 -3.74700 -2.60500
H -1.55400 -0.94900 5.13200
H -1.58500 1.83100 4.66500
H -3.48400 -0.37700 3.96900
H -3.51100 1.02700 2.85800
H -3.85200 1.30100 4.54300
H 0.66900 1.09600 4.96600
H 1.13000 -0.63900 5.18900
H -0.84400 0.02600 7.12500
H 0.06200 1.47700 6.92100
H -1.34400 5.18600 1.93800
H -1.65100 5.96300 0.43200
H 0.00700 6.02000 1.08400
H -0.63500 6.74400 -1.40500
H 0.66500 6.97000 -2.70400
H 1.04800 6.46600 -1.03600
H 0.60800 0.50100 -4.89100
H -0.69200 -2.15600 -4.54700
H -1.26700 0.74000 -6.12900
H -2.20400 0.71400 -4.59600
H -1.96700 -0.72000 -5.45300
H 1.35600 -1.75900 -5.96700
H 1.45200 -3.15700 -4.90200
H 2.71400 -0.52200 -4.79800
H 3.48700 -2.12100 -4.52900
H 2.49500 -1.30300 -3.24000
H 0.86700 -6.33300 -0.08400
H 0.40400 -5.64200 -1.68000
H -0.89100 -5.99900 -0.46300
H -1.28300 -3.58100 4.02800
H 0.69800 -4.47800 7.75500
H 0.83300 -2.61900 7.68000
H 2.00000 -3.75400 6.97600
Mg 15.77270 1.42256 1.20548
C 15.65756 -1.43429 3.37439
C 14.52754 3.25487 3.79909
C 15.43739 3.85500 -0.80405
C 15.90720 -0.79514 -1.47955
N 15.20668 0.86897 3.27077
C 15.26440 -0.23389 4.00201
C 14.95624 -0.02344 5.50876
C 14.07961 1.31682 5.39001
C 14.65938 1.87384 4.09145
C 12.59882 1.05043 5.17637
C 16.25487 0.21289 6.35712
C 16.05959 0.11793 7.87192
H 17.13815 -0.44618 8.67874
N 15.55468 3.36258 1.56239
C 15.05326 3.93346 2.67772
C 15.08659 5.38433 2.43688
C 15.49500 5.61616 1.02473
C 15.49130 4.25674 0.52269
C 14.82729 6.39456 3.51653
C 15.82093 6.85732 0.25046
O 15.91982 6.84726 -1.02741
C 15.92874 8.10305 1.02377
N 15.47137 1.52281 -0.84915
C 15.41308 2.70754 -1.48233
C 15.46814 2.52850 -2.98076
C 15.82063 0.98650 -3.21653
C 15.82044 0.49989 -1.75071
C 14.18895 2.87974 -3.74015
C 17.06058 0.67490 -4.09862
C 18.32138 1.11703 -3.39131
N 15.96809 -0.71536 0.96228
C 15.97665 -1.43863 -0.25053
C 16.01467 -2.87359 0.09857
C 16.00225 -2.88632 1.50148
C 15.93911 -1.55404 1.99196
C 16.00599 -3.95532 -0.82658
C 16.01746 -3.72423 2.67893
O 16.15251 -4.92953 2.88570
C 15.66730 -2.82621 3.94279
C 16.66724 -3.13482 5.02325
O 17.86895 -2.85290 4.87152
O 16.01133 -3.50953 6.13669
C 16.96014 -3.81555 7.24028
H 13.92912 3.87231 4.46957
H 15.43284 4.66141 -1.54106
H 16.04975 -1.54653 -2.25915
H 14.37064 -0.81137 5.96703
H 14.27815 1.99325 6.21728
H 12.39654 0.00110 5.02103
H 12.32015 1.62303 4.30143
H 12.01784 1.46474 6.00531
H 16.55169 1.26614 6.27161
H 17.03669 -0.45471 6.05101
H 15.10039 -0.34389 8.13572
H 15.98998 1.13041 8.27697
H 14.39071 5.92752 4.40797
H 14.04152 7.06251 3.14740
H 15.71115 6.98856 3.75865
H 14.99170 8.28758 1.54373
H 16.25470 8.86253 0.31045
H 16.69584 7.97084 1.79494
H 16.25114 3.13827 -3.41458
H 15.00268 0.45458 -3.72432
H 14.34245 3.64694 -4.52241
H 13.44694 3.20906 -3.02496
H 13.69067 2.03873 -4.21935
H 17.01339 1.24135 -5.03193
H 17.15049 -0.37357 -4.36245
H 18.37565 2.18396 -3.62752
H 19.18596 0.58236 -3.77948
H 18.21560 1.02507 -2.30411
H 16.73975 -4.66956 -0.47737
H 16.22879 -3.61672 -1.83628
H 14.97027 -4.29038 -0.72517
H 14.64848 -3.07040 4.24601
H 16.74040 -4.83321 7.57756
H 16.83233 -3.00161 7.97846
H 18.01112 -3.89827 6.98918
158

Mg 0.00000 0.00000 0.00000
C -0.21700 -2.21800 2.80100
C -1.25500 2.44200 2.02600
C -0.24500 1.85000 -2.56400
C 0.14600 -2.82400 -2.03700
N -0.61700 -0.00900 2.12600
C -0.59400 -0.90800 3.10500
C -0.93600 -0.30900 4.50200
C -1.77300 0.96400 4.03200
C -1.15500 1.16800 2.66000
C -3.26300 0.68500 3.86300
C 0.34500 0.11000 5.29900
C 0.12400 0.39700 6.78700
H 1.16800 0.03300 7.73300
N -0.18500 1.96100 -0.15200
C -0.70300 2.80000 0.77700
C -0.62000 4.15600 0.19300
C -0.18700 4.01500 -1.22500
C -0.21400 2.58300 -1.38000
C -0.88700 5.40600 0.97400
C 0.18100 5.01300 -2.27700
O 0.30300 4.69000 -3.50800
C 0.31000 6.41400 -1.83700
N -0.26500 -0.41300 -2.02900
C -0.27900 0.56900 -2.93700
C -0.19600 0.02400 -4.33200
C 0.12400 -1.53300 -4.18000
C 0.08600 -1.63200 -2.63500
C -1.45100 0.20500 -5.19700
C 1.37300 -2.07000 -4.92300
C 2.62600 -1.49000 -4.30600
N 0.15000 -2.14400 0.30300
C 0.17300 -3.13600 -0.68800
C 0.17300 -4.43800 0.00400
C 0.13300 -4.11100 1.35800
C 0.08300 -2.69500 1.50200
C 0.14900 -5.71500 -0.62300
C 0.09600 -4.62900 2.71600
O 0.20800 -5.74700 3.22100
C -0.25500 -3.42800 3.70100
C 0.71700 -3.48200 4.84800
O 1.93100 -3.25500 4.66900
O 0.03800 -3.55600 6.00300
C 0.94300 -3.58300 7.18300
H -1.85900 3.22000 2.49700
H -0.21800 2.45300 -3.47400
H 0.27600 -3.74700 -2.60500
H -1.55400 -0.94900 5.13200
H -1.58500 1.83100 4.66500
H -3.48400 -0.37700 3.96900
H -3.51100 1.02700 2.85800
H -3.85200 1.30100 4.54300
H 0.66900 1.09600 4.96600
H 1.13000 -0.63900 5.18900
H -0.84400 0.02600 7.12500
H 0.06200 1.47700 6.92100
H -1.34400 5.18600 1.93800
H -1.65100 5.96300 0.43200
H 0.00700 6.02000 1.08400
H -0.63500 6.74400 -1.40500
H 0.66500 6.97000 -2.70400
H 1.04800 6.46600 -1.03600
H 0.60800 0.50100 -4.89100
H -0.69200 -2.15600 -4.54700
H -1.26700 0.74000 -6.12900
H -2.20400 0.71400 -4.59600
H -1.96700 -0.72000 -5.45300
H 1.35600 -1.75900 -5.96700
H 1.45200 -3.15700 -4.90200
H 2.71400 -0.52200 -4.79800
H 3.48700 -2.12100 -4.52900
H 2.49500 -1.30300 -3.24000
H 0.86700 -6.33300 -0.08400
H 0.40400 -5.64200 -1.68000
H -0.89100 -5.99900 -0.46300
H -1.28300 -3.58100 4.02800
H 0.69800 -4.47800 7.75500
H 0.83300 -2.61900 7.68000
H 2.00000 -3.75400 6.97600
Mg 15.77273 1.42210 1.20563
C 15.68338 -1.56621 3.19085
C 14.53427 3.08124 3.91636
C 15.41453 3.97456 -0.64478
C 15.90182 -0.62142 -1.61449
N 15.22130 0.73674 3.23503
C 15.28835 -0.40968 3.89500
C 14.98801 -0.29607 5.41370
C 14.10453 1.04464 5.38446
C 14.67416 1.68521 4.12040
C 12.62377 0.78488 5.16264
C 16.29045 -0.10719 6.26809
C 16.10443 -0.29832 7.77494
H 17.19026 -0.90677 8.53866
N 15.54786 3.33468 1.68525
C 15.05031 3.83169 2.83708
C 15.07556 5.29500 2.68795
C 15.47467 5.61732 1.29098
C 15.47431 4.29221 0.70432
C 14.81790 6.23393 3.83051
C 15.79037 6.90638 0.59465
O 15.88186 6.97730 -0.68184
C 15.89694 8.10146 1.44430
N 15.45899 1.65003 -0.83691
C 15.39155 2.87199 -1.39386
C 15.43872 2.78794 -2.90088
C 15.79692 1.26562 -3.23526
C 15.80751 0.68767 -1.80304
C 14.15352 3.17995 -3.62956
C 17.03314 1.01635 -4.14207
C 18.29599 1.41930 -3.41527
N 15.97655 -0.69527 0.82714
C 15.98138 -1.34067 -0.42885
C 16.02804 -2.79457 -0.17107
C 16.02384 -2.89568 1.22830
C 15.95743 -1.59727 1.80208
C 16.01896 -3.81592 -1.16247
C 16.04977 -3.80599 2.35052
O 16.19157 -5.02123 2.48019
C 15.70284 -2.99110 3.67036
C 16.71046 -3.36217 4.72369
O 17.90996 -3.06529 4.58340
O 16.06278 -3.80950 5.81492
C 17.01940 -4.17970 6.89178
H 13.93692 3.65225 4.62770
H 15.40197 4.82575 -1.32948
H 16.04328 -1.32151 -2.44065
H 14.40872 -1.11419 5.82465
H 14.30477 1.66861 6.25160
H 12.42543 -0.25357 4.94262
H 12.33738 1.41005 4.32707
H 12.04572 1.14328 6.01923
H 16.58192 0.95081 6.24746
H 17.07354 -0.75030 5.91621
H 15.14892 -0.78060 8.01441
H 16.03252 0.68628 8.24336
H 14.38867 5.70952 4.69316
H 14.02693 6.91990 3.50854
H 15.70041 6.81589 4.10469
H 14.96210 8.24823 1.98002
H 16.21524 8.90596 0.77846
H 16.66911 7.92475 2.20137
H 16.21636 3.42770 -3.29973
H 14.97849 0.76268 -3.77104
H 14.29893 3.99564 -4.36276
H 13.41418 3.45990 -2.89095
H 13.65634 2.36833 -4.15803
H 16.97791 1.64021 -5.03756
H 17.12634 -0.01298 -4.47192
H 18.34397 2.49925 -3.58409
H 19.16075 0.91444 -3.84113
H 18.19697 1.25854 -2.33546
H 16.75802 -4.54708 -0.86301
H 16.23431 -3.41331 -2.15005
H 14.98540 -4.16184 -1.07665
H 14.68693 -3.25895 3.96322
H 16.80631 -5.21766 7.16549
H 16.89214 -3.41451 7.68047
H 18.06927 -4.24123 6.63017
158

Mg 0.00000 0.00000 0.00000
C -0.21700 -2.21800 2.80100
C -1.25500 2.44200 2.02600
C -0.24500 1.85000 -2.56400
C 0.14600 -2.82400 -2.03700
N -0.61700 -0.00900 2.12600
C -0.59400 -0.90800 3.10500
C -0.93600 -0.30900 4.50200
C -1.77300 0.96400 4.03200
C -1.15500 1.16800 2.66000
C -3.26300 0.68500 3.86300
C 0.34500 0.11000 5.29900
C 0.12400 0.39700 6.78700
H 1.16800 0.03300 7.73300
N -0.18500 1.96100 -0.15200
C -0.70300 2.80000 0.77700
C -0.62000 4.15600 0.19300
C -0.18700 4.01500 -1.22500
C -0.21400 2.58300 -1.38000
C -0.88700 5.40600 0.97400
C 0.18100 5.01300 -2.27700
O 0.30300 4.69000 -3.50800
C 0.31000 6.41400 -1.83700
N -0.26500 -0.41300 -2.02900
C -0.27900 0.56900 -2.93700
C -0.19600 0.02400 -4.33200
C 0.12400 -1.53300 -4.18000
C 0.08600 -1.63200 -2.63500
C -1.45100 0.20500 -5.19700
C 1.37300 -2.07000 -4.92300
C 2.62600 -1.49000 -4.30600
N 0.15000 -2.14400 0.30300
C 0.17300 -3.13600 -0.68800
C 0.17300 -4.43800 0.00400
C 0.13300 -4.11100 1.35800
C 0.08300 -2.69500 1.50200
C 0.14900 -5.71500 -0.62300
C 0.09600 -4.62900 2.71600
O 0.20800 -5.74700 3.22100
C -0.25500 -3.42800 3.70100
C 0.71700 -3.48200 4.84800
O 1.93100 -3.25500 4.66900
O 0.03800 -3.55600 6.00300
C 0.94300 -3.58300 7.18300
H -1.85900 3.22000 2.49700
H -0.21800 2.45300 -3.47400
H 0.27600 -3.74700 -2.60500
H -1.55400 -0.94900 5.13200
H -1.58500 1.83100 4.66500
H -3.48400 -0.37700 3.96900
H -3.51100 1.02700 2.85800
H -3.85200 1.30100 4.54300
H 0.66900 1.09600 4.96600
H 1.13000 -0.63900 5.18900
H -0.84400 0.02600 7.12500
H 0.06200 1.47700 6.92100
H -1.34400 5.18600 1.93800
H -1.65100 5.96300 0.43200
H 0.00700 6.02000 1.08400
H -0.63500 6.74400 -1.40500
H 0.66500 6.97000 -2.70400
H 1.04800 6.46600 -1.03600
H 0.60800 0.50100 -4.89100
H -0.69200 -2.15600 -4.54700
H -1.26700 0.74000 -6.12900
H -2.20400 0.71400 -4.59600
H -1.96700 -0.72000 -5.45300
H 1.35600 -1.75900 -5.96700
H 1.45200 -3.15700 -4.90200
H 2.71400 -0.52200 -4.79800
H 3.48700 -2.12100 -4.52900
H 2.49500 -1.30300 -3.24000
H 0.86700 -6.33300 -0.08400
H 0.40400 -5.64200 -1.68000
H -0.89100 -5.99900 -0.46300
H -1.28300 -3.58100 4.02800
H 0.69800 -4.47800 7.75500
H 0.83300 -2.61900 7.68000
H 2.00000 -3.75400 6.97600
Mg 15.77276 1.42162 1.20575
C 15.70874 -1.68618 2.99922
C 14.54247 2.90059 4.02242
C 15.39205 4.08374 -0.47817
C 15.89484 -0.43958 -1.73818
N 15.23632 0.60709 3.19095
C 15.31249 -0.57827 3.77701
C 15.02047 -0.56201 5.30148
C 14.13068 0.77347 5.36164
C 14.68998 1.49520 4.13732
C 12.64986 0.52086 5.13208
C 16.32699 -0.42085 6.15886
C 16.15063 -0.70741 7.65169
H 17.24367 -1.35735 8.36955
N 15.54188 3.29906 1.80615
C 15.04877 3.72008 2.98973
C 15.06641 5.18998 2.93295
C 15.45589 5.60161 1.55688
C 15.45821 4.31609 0.88791
C 14.81108 6.05380 4.13380
C 15.76158 6.93352 0.94142
O 15.84531 7.08514 -0.32855
C 15.86760 8.07323 1.86407
N 15.44609 1.77617 -0.81661
C 15.36979 3.03043 -1.29509
C 15.40857 3.04168 -2.80464
C 15.77182 1.54524 -3.23625
C 15.79341 0.87830 -1.84336
C 14.11735 3.47243 -3.50008
C 17.00388 1.35971 -4.16376
C 18.26907 1.72236 -3.42001
N 15.98412 -0.66667 0.69349
C 15.98462 -1.23166 -0.60067
C 16.03948 -2.69865 -0.43526
C 16.04389 -2.88771 0.95496
C 15.97484 -1.62836 1.60976
C 16.02933 -3.65558 -1.48898
C 16.08054 -3.86675 2.01743
O 16.22869 -5.08703 2.06951
C 15.73755 -3.13832 3.38789
C 16.75299 -3.56999 4.41017
O 17.95027 -3.25891 4.28224
O 16.11373 -4.08836 5.47461
C 17.07831 -4.52089 6.52071
H 13.94665 3.42270 4.77161
H 15.37158 4.97628 -1.10780
H 16.03471 -1.08553 -2.60758
H 14.44737 -1.40726 5.66326
H 14.33309 1.34259 6.26525
H 12.45502 -0.50265 4.84816
H 12.35573 1.19598 4.33914
H 12.07516 0.82173 6.01272
H 16.61345 0.63778 6.20333
H 17.11096 -1.03663 5.76286
H 15.19875 -1.20855 7.86557