%nproc=24
%mem=175gb
#p cam-b3lyp/Def2SVP td=(nstates=5)

TDDFT excited states in gaussian

0 1
Mg 10.51667 0.94203 0.80623
C 7.98557 0.29354 3.26632
C 12.02109 2.96448 3.10427
C 12.50955 1.88534 -1.47544
C 8.26320 -0.17683 -1.60536
N 9.97737 1.47883 2.88307
C 9.02642 1.12286 3.73355
C 9.24370 1.62219 5.18717
C 10.18722 2.88238 4.87004
C 10.79858 2.40502 3.55434
C 9.41239 4.16154 4.60035
C 9.98104 0.56266 6.07921
C 9.95193 0.85452 7.58112
H 9.86140 -0.27089 8.50725
N 12.28695 1.82997 0.93364
C 12.74246 2.59500 1.94780
C 14.09127 3.02781 1.55086
C 14.33009 2.59154 0.14824
C 13.01488 2.09265 -0.20021
C 15.03789 3.70982 2.49542
C 15.53838 2.63020 -0.73763
O 15.45599 2.41549 -1.99856
C 16.80560 3.01854 -0.10137
N 10.33529 1.06742 -1.26107
C 11.37085 1.46048 -2.02333
C 11.09688 1.20972 -3.48704
C 9.75524 0.34041 -3.53023
C 9.42247 0.31352 -2.02227
C 10.92342 2.45629 -4.35444
C 9.81504 -1.00845 -4.29813
C 10.72016 -1.97662 -3.57094
N 8.56296 0.01952 0.81212
C 7.78773 -0.34358 -0.31094
C 6.48734 -0.82790 0.19585
C 6.58851 -0.69028 1.58844
C 7.85443 -0.13891 1.92448
C 5.39485 -1.26830 -0.60331
C 5.90821 -0.87615 2.84993
O 4.84406 -1.38766 3.19590
C 6.73409 -0.12947 3.98429
C 6.87855 -1.07012 5.14912
O 7.54166 -2.11635 5.03818
O 6.39620 -0.47744 6.25656
C 6.52749 -1.36714 7.44105
H 12.44970 3.79477 3.66623
H 13.20086 2.09155 -2.29584
H 7.54383 -0.63474 -2.28763
H 8.34402 1.94960 5.69428
H 10.95740 2.99981 5.62793
H 8.34824 3.98497 4.55001
H 9.77942 4.53355 3.65275
H 9.67018 4.92209 5.34294
H 11.06113 0.62954 5.89571
H 9.59884 -0.42256 5.89509
H 9.21301 1.62348 7.83735
H 10.90927 1.29683 7.86729
H 14.52577 4.04531 3.40569
H 15.36257 4.63619 2.00933
H 15.91696 3.10279 2.72214
H 16.70047 4.00720 0.33906
H 17.56831 2.90135 -0.87365
H 17.00940 2.32662 0.72345
H 11.89959 0.63979 -3.93863
H 8.93463 0.88180 -4.02352
H 11.62845 2.49696 -5.20612
H 11.03696 3.32875 -3.72480
H 9.92560 2.59701 -4.76647
H 10.25080 -0.86094 -5.28934
H 8.84279 -1.46875 -4.43901
H 11.71729 -1.69173 -3.91973
H 10.48387 -3.00248 -3.84628
H 10.68879 -1.80735 -2.48835
H 5.00736 -2.16326 -0.13493
H 5.70360 -1.45740 -1.62931
H 4.73472 -0.40019 -0.52667
H 6.18166 0.77200 4.25213
H 5.52817 -1.47099 7.87495
H 7.30698 -0.90591 8.07619
H 6.78943 -2.40352 7.26285

