%nproc=24
%mem=175gb
#p cam-b3lyp/Def2SVP td=(nstates=5)

TDDFT excited states in gaussian

0 1
Mg 0.00000 0.00000 0.00000
C -0.21700 -2.21800 2.80100
C -1.25500 2.44200 2.02600
C -0.24500 1.85000 -2.56400
C 0.14600 -2.82400 -2.03700
N -0.61700 -0.00900 2.12600
C -0.59400 -0.90800 3.10500
C -0.93600 -0.30900 4.50200
C -1.77300 0.96400 4.03200
C -1.15500 1.16800 2.66000
C -3.26300 0.68500 3.86300
C 0.34500 0.11000 5.29900
C 0.12400 0.39700 6.78700
H 1.16800 0.03300 7.73300
N -0.18500 1.96100 -0.15200
C -0.70300 2.80000 0.77700
C -0.62000 4.15600 0.19300
C -0.18700 4.01500 -1.22500
C -0.21400 2.58300 -1.38000
C -0.88700 5.40600 0.97400
C 0.18100 5.01300 -2.27700
O 0.30300 4.69000 -3.50800
C 0.31000 6.41400 -1.83700
N -0.26500 -0.41300 -2.02900
C -0.27900 0.56900 -2.93700
C -0.19600 0.02400 -4.33200
C 0.12400 -1.53300 -4.18000
C 0.08600 -1.63200 -2.63500
C -1.45100 0.20500 -5.19700
C 1.37300 -2.07000 -4.92300
C 2.62600 -1.49000 -4.30600
N 0.15000 -2.14400 0.30300
C 0.17300 -3.13600 -0.68800
C 0.17300 -4.43800 0.00400
C 0.13300 -4.11100 1.35800
C 0.08300 -2.69500 1.50200
C 0.14900 -5.71500 -0.62300
C 0.09600 -4.62900 2.71600
O 0.20800 -5.74700 3.22100
C -0.25500 -3.42800 3.70100
C 0.71700 -3.48200 4.84800
O 1.93100 -3.25500 4.66900
O 0.03800 -3.55600 6.00300
C 0.94300 -3.58300 7.18300
H -1.85900 3.22000 2.49700
H -0.21800 2.45300 -3.47400
H 0.27600 -3.74700 -2.60500
H -1.55400 -0.94900 5.13200
H -1.58500 1.83100 4.66500
H -3.48400 -0.37700 3.96900
H -3.51100 1.02700 2.85800
H -3.85200 1.30100 4.54300
H 0.66900 1.09600 4.96600
H 1.13000 -0.63900 5.18900
H -0.84400 0.02600 7.12500
H 0.06200 1.47700 6.92100
H -1.34400 5.18600 1.93800
H -1.65100 5.96300 0.43200
H 0.00700 6.02000 1.08400
H -0.63500 6.74400 -1.40500
H 0.66500 6.97000 -2.70400
H 1.04800 6.46600 -1.03600
H 0.60800 0.50100 -4.89100
H -0.69200 -2.15600 -4.54700
H -1.26700 0.74000 -6.12900
H -2.20400 0.71400 -4.59600
H -1.96700 -0.72000 -5.45300
H 1.35600 -1.75900 -5.96700
H 1.45200 -3.15700 -4.90200
H 2.71400 -0.52200 -4.79800
H 3.48700 -2.12100 -4.52900
H 2.49500 -1.30300 -3.24000
H 0.86700 -6.33300 -0.08400
H 0.40400 -5.64200 -1.68000
H -0.89100 -5.99900 -0.46300
H -1.28300 -3.58100 4.02800
H 0.69800 -4.47800 7.75500
H 0.83300 -2.61900 7.68000
H 2.00000 -3.75400 6.97600
Mg 7.88326 0.70232 0.60644
C 5.44919 2.03482 2.88214
C 10.15129 0.90946 3.14568
C 10.14753 -0.04126 -1.48822
C 5.77235 1.66217 -1.99519
N 7.70305 1.39813 2.69824
C 6.71421 1.82450 3.46945
C 7.08271 1.96090 4.97117
C 8.67084 2.13968 4.81379
C 8.86894 1.40811 3.48780
C 9.09829 3.58630 4.62967
C 6.72841 0.67209 5.79302
C 6.77385 0.84576 7.31273
H 5.80479 0.11630 8.12594
N 9.72060 0.00914 0.89327
C 10.48707 0.16604 1.99290
C 11.75826 -0.51290 1.69748
C 11.74107 -0.94140 0.27242
C 10.51755 -0.30896 -0.17827
C 12.80558 -0.76950 2.74184
C 12.67820 -1.77107 -0.55199
O 12.58934 -1.81809 -1.82977
C 13.76070 -2.45266 0.17265
N 8.05264 0.98442 -1.44638
C 9.11739 0.51874 -2.12267
C 8.89174 0.59350 -3.61394
C 7.35151 0.98336 -3.79638
C 6.95823 1.16163 -2.31350
C 9.76328 1.59673 -4.36915
C 6.48799 0.04417 -4.68234
C 6.33033 -1.29995 -4.00863
N 5.88294 1.50193 0.44093
C 5.20124 1.85608 -0.74394
C 3.91488 2.46112 -0.34188
C 3.94770 2.43780 1.06057
C 5.17698 1.87756 1.50159
C 2.92946 2.98452 -1.22568
C 3.22648 2.76947 2.26827
O 2.09692 3.18822 2.51825
C 4.22003 2.63934 3.50209
C 3.52178 1.85658 4.58017
O 3.22454 0.66217 4.40228
O 3.51555 2.57887 5.71535
C 2.84340 1.83986 6.81712
H 10.99096 1.14451 3.80035
H 10.84795 -0.38078 -2.25478
H 5.01680 1.89721 -2.74790
H 6.65840 2.82613 5.46625
H 9.20641 1.63311 5.61248
H 8.25057 4.24560 4.51639
H 9.71073 3.60082 3.73762
H 9.75341 3.89313 5.45004
H 7.53018 -0.06637 5.66424
H 5.77097 0.28581 5.50192
H 6.80402 1.90213 7.60617
H 7.71874 0.43835 7.68047
H 12.61163 -0.19462 3.65578
H 13.74658 -0.36053 2.35827
H 12.94123 -1.83297 2.94996
H 14.36384 -1.71567 0.69755
H 14.27025 -3.06627 -0.57281
H 13.31661 -3.09876 0.93813
H 9.06856 -0.36783 -4.08050
H 7.23405 1.96760 -4.27316
H 10.35593 1.13533 -5.18153
H 10.41248 2.08879 -3.65714
H 9.22638 2.43496 -4.80995
H 6.98850 -0.14321 -5.63550
H 5.50570 0.44572 -4.90787
H 7.25003 -1.82406 -4.28532
H 5.45162 -1.81777 -4.38779
H 6.32616 -1.19519 -2.91746
H 1.97023 2.64342 -0.85959
H 3.10254 2.66169 -2.25018
H 3.10278 4.05643 -1.09825
H 4.47223 3.64931 3.82755
H 2.04534 2.48631 7.19512
H 3.64689 1.56458 7.52591
H 2.28676 0.94757 6.55556

