%nproc=24
%mem=175gb
#p cam-b3lyp/Def2SVP td=(nstates=5)

TDDFT excited states in gaussian

0 1
Mg 0.00000 0.00000 0.00000
C -0.21700 -2.21800 2.80100
C -1.25500 2.44200 2.02600
C -0.24500 1.85000 -2.56400
C 0.14600 -2.82400 -2.03700
N -0.61700 -0.00900 2.12600
C -0.59400 -0.90800 3.10500
C -0.93600 -0.30900 4.50200
C -1.77300 0.96400 4.03200
C -1.15500 1.16800 2.66000
C -3.26300 0.68500 3.86300
C 0.34500 0.11000 5.29900
C 0.12400 0.39700 6.78700
H 1.16800 0.03300 7.73300
N -0.18500 1.96100 -0.15200
C -0.70300 2.80000 0.77700
C -0.62000 4.15600 0.19300
C -0.18700 4.01500 -1.22500
C -0.21400 2.58300 -1.38000
C -0.88700 5.40600 0.97400
C 0.18100 5.01300 -2.27700
O 0.30300 4.69000 -3.50800
C 0.31000 6.41400 -1.83700
N -0.26500 -0.41300 -2.02900
C -0.27900 0.56900 -2.93700
C -0.19600 0.02400 -4.33200
C 0.12400 -1.53300 -4.18000
C 0.08600 -1.63200 -2.63500
C -1.45100 0.20500 -5.19700
C 1.37300 -2.07000 -4.92300
C 2.62600 -1.49000 -4.30600
N 0.15000 -2.14400 0.30300
C 0.17300 -3.13600 -0.68800
C 0.17300 -4.43800 0.00400
C 0.13300 -4.11100 1.35800
C 0.08300 -2.69500 1.50200
C 0.14900 -5.71500 -0.62300
C 0.09600 -4.62900 2.71600
O 0.20800 -5.74700 3.22100
C -0.25500 -3.42800 3.70100
C 0.71700 -3.48200 4.84800
O 1.93100 -3.25500 4.66900
O 0.03800 -3.55600 6.00300
C 0.94300 -3.58300 7.18300
H -1.85900 3.22000 2.49700
H -0.21800 2.45300 -3.47400
H 0.27600 -3.74700 -2.60500
H -1.55400 -0.94900 5.13200
H -1.58500 1.83100 4.66500
H -3.48400 -0.37700 3.96900
H -3.51100 1.02700 2.85800
H -3.85200 1.30100 4.54300
H 0.66900 1.09600 4.96600
H 1.13000 -0.63900 5.18900
H -0.84400 0.02600 7.12500
H 0.06200 1.47700 6.92100
H -1.34400 5.18600 1.93800
H -1.65100 5.96300 0.43200
H 0.00700 6.02000 1.08400
H -0.63500 6.74400 -1.40500
H 0.66500 6.97000 -2.70400
H 1.04800 6.46600 -1.03600
H 0.60800 0.50100 -4.89100
H -0.69200 -2.15600 -4.54700
H -1.26700 0.74000 -6.12900
H -2.20400 0.71400 -4.59600
H -1.96700 -0.72000 -5.45300
H 1.35600 -1.75900 -5.96700
H 1.45200 -3.15700 -4.90200
H 2.71400 -0.52200 -4.79800
H 3.48700 -2.12100 -4.52900
H 2.49500 -1.30300 -3.24000
H 0.86700 -6.33300 -0.08400
H 0.40400 -5.64200 -1.68000
H -0.89100 -5.99900 -0.46300
H -1.28300 -3.58100 4.02800
H 0.69800 -4.47800 7.75500
H 0.83300 -2.61900 7.68000
H 2.00000 -3.75400 6.97600
Mg 8.94140 0.80012 0.68524
C 9.13183 -2.55251 -0.58074
C 7.95268 -0.53947 3.66224
C 8.33060 3.74560 1.69442
C 8.82500 1.89408 -2.62163
N 8.62136 -1.29018 1.33368
C 8.78456 -2.48444 0.78462
C 8.64159 -3.67211 1.77385
C 7.72774 -2.95359 2.88177
C 8.14679 -1.50460 2.64198
C 6.23863 -3.07253 2.60295
C 10.02109 -4.12207 2.37093
C 9.99792 -5.46670 3.10113
H 11.17185 -6.33013 3.00709
N 8.72163 1.50709 2.52656
C 8.33506 0.81938 3.62150
C 8.30926 1.79581 4.72154
C 8.55259 3.14944 4.15303
C 8.52306 2.84924 2.73560
C 8.14955 1.39707 6.15991
C 8.76269 4.49400 4.78087
O 8.71881 5.57346 4.09118
C 8.92839 4.51681 6.24153
N 8.41093 2.54871 -0.30641
C 8.25627 3.70394 0.36399
C 8.14802 4.87445 -0.58396
C 8.50608 4.29124 -2.02938
C 8.67994 2.80051 -1.66481
C 6.78474 5.56368 -0.63697
C 9.64664 4.99890 -2.81105
C 10.96830 4.77278 -2.11284
N 9.15574 -0.10994 -1.26256
C 9.04515 0.52652 -2.51825
C 9.15356 -0.52491 -3.55033
C 9.29778 -1.71242 -2.81718
C 9.26021 -1.42401 -1.42617
C 9.06581 -0.32245 -4.95654
C 9.46259 -3.14562 -2.90363
O 9.64647 -3.94515 -3.82052
C 9.23561 -3.76845 -1.45900
C 10.35627 -4.73459 -1.18841
O 11.52707 -4.32984 -1.07874
O 9.83693 -5.93921 -0.88919
C 10.90931 -6.92885 -0.60208
H 7.41916 -0.83876 4.56483
H 8.22613 4.79292 1.98714
H 8.89641 2.16562 -3.67702
H 8.12826 -4.53790 1.37299
H 8.00219 -3.26883 3.88509
H 6.04358 -3.52059 1.63997
H 5.85164 -2.06247 2.63564
H 5.74458 -3.61105 3.41674
H 10.28316 -3.45941 3.20576
H 10.77852 -4.13629 1.61151
H 9.08452 -6.03547 2.88862
H 9.95148 -5.27699 4.17625
H 7.82543 0.35332 6.25439
H 7.31296 1.97873 6.56198
H 9.04152 1.60271 6.75554
H 8.05125 4.07826 6.71137
H 9.15598 5.55436 6.49365
H 9.77935 3.87965 6.50708
H 8.86413 5.64601 -0.32907
H 7.64862 4.34892 -2.71588
H 6.83313 6.64499 -0.40784
H 6.11991 5.05857 0.05108
H 6.25491 5.46709 -1.58309
H 9.48326 6.07931 -2.82388
H 9.72978 4.67349 -3.84264
H 10.97229 5.54366 -1.33644
H 11.79587 4.90693 -2.80651
H 10.98634 3.79872 -1.61032
H 9.84953 -0.91747 -5.40626
H 9.16720 0.72983 -5.21382
H 8.05550 -0.69551 -5.14463
H 8.26256 -4.26112 -1.46384
H 10.75107 -7.77610 -1.27648
H 10.84655 -7.13079 0.48375
H 11.92735 -6.65018 -0.84783

