%nproc=24
%mem=175gb
#p cam-b3lyp/Def2SVP td=(nstates=5)

TDDFT excited states in gaussian

0 1
Mg 0.00000 0.00000 0.00000
C -0.21700 -2.21800 2.80100
C -1.25500 2.44200 2.02600
C -0.24500 1.85000 -2.56400
C 0.14600 -2.82400 -2.03700
N -0.61700 -0.00900 2.12600
C -0.59400 -0.90800 3.10500
C -0.93600 -0.30900 4.50200
C -1.77300 0.96400 4.03200
C -1.15500 1.16800 2.66000
C -3.26300 0.68500 3.86300
C 0.34500 0.11000 5.29900
C 0.12400 0.39700 6.78700
H 1.16800 0.03300 7.73300
N -0.18500 1.96100 -0.15200
C -0.70300 2.80000 0.77700
C -0.62000 4.15600 0.19300
C -0.18700 4.01500 -1.22500
C -0.21400 2.58300 -1.38000
C -0.88700 5.40600 0.97400
C 0.18100 5.01300 -2.27700
O 0.30300 4.69000 -3.50800
C 0.31000 6.41400 -1.83700
N -0.26500 -0.41300 -2.02900
C -0.27900 0.56900 -2.93700
C -0.19600 0.02400 -4.33200
C 0.12400 -1.53300 -4.18000
C 0.08600 -1.63200 -2.63500
C -1.45100 0.20500 -5.19700
C 1.37300 -2.07000 -4.92300
C 2.62600 -1.49000 -4.30600
N 0.15000 -2.14400 0.30300
C 0.17300 -3.13600 -0.68800
C 0.17300 -4.43800 0.00400
C 0.13300 -4.11100 1.35800
C 0.08300 -2.69500 1.50200
C 0.14900 -5.71500 -0.62300
C 0.09600 -4.62900 2.71600
O 0.20800 -5.74700 3.22100
C -0.25500 -3.42800 3.70100
C 0.71700 -3.48200 4.84800
O 1.93100 -3.25500 4.66900
O 0.03800 -3.55600 6.00300
C 0.94300 -3.58300 7.18300
H -1.85900 3.22000 2.49700
H -0.21800 2.45300 -3.47400
H 0.27600 -3.74700 -2.60500
H -1.55400 -0.94900 5.13200
H -1.58500 1.83100 4.66500
H -3.48400 -0.37700 3.96900
H -3.51100 1.02700 2.85800
H -3.85200 1.30100 4.54300
H 0.66900 1.09600 4.96600
H 1.13000 -0.63900 5.18900
H -0.84400 0.02600 7.12500
H 0.06200 1.47700 6.92100
H -1.34400 5.18600 1.93800
H -1.65100 5.96300 0.43200
H 0.00700 6.02000 1.08400
H -0.63500 6.74400 -1.40500
H 0.66500 6.97000 -2.70400
H 1.04800 6.46600 -1.03600
H 0.60800 0.50100 -4.89100
H -0.69200 -2.15600 -4.54700
H -1.26700 0.74000 -6.12900
H -2.20400 0.71400 -4.59600
H -1.96700 -0.72000 -5.45300
H 1.35600 -1.75900 -5.96700
H 1.45200 -3.15700 -4.90200
H 2.71400 -0.52200 -4.79800
H 3.48700 -2.12100 -4.52900
H 2.49500 -1.30300 -3.24000
H 0.86700 -6.33300 -0.08400
H 0.40400 -5.64200 -1.68000
H -0.89100 -5.99900 -0.46300
H -1.28300 -3.58100 4.02800
H 0.69800 -4.47800 7.75500
H 0.83300 -2.61900 7.68000
H 2.00000 -3.75400 6.97600
Mg 7.88966 0.71144 0.60700
C 7.85039 -2.50342 2.20144
C 6.66899 2.00397 3.51800
C 7.48689 3.47240 -0.90373
C 8.00317 -0.96004 -2.44897
N 7.36854 -0.22914 2.53988
C 7.45358 -1.44866 3.04966
C 7.17037 -1.52989 4.57372
C 6.27480 -0.20528 4.72281
C 6.82364 0.59488 3.54332
C 4.79385 -0.45029 4.48596
C 8.48119 -1.43652 5.43107
C 8.31485 -1.81740 6.90382
H 9.41503 -2.50582 7.57326
N 7.65363 2.54617 1.32576
C 7.16548 2.88936 2.53622
C 7.17602 4.36000 2.57206
C 7.55558 4.85940 1.22253
C 7.55993 3.61858 0.47390
C 6.92371 5.14520 3.82634
C 7.85155 6.22892 0.69052
O 7.92719 6.46063 -0.56781
C 7.95769 7.30878 1.68255
N 7.54959 1.19102 -1.38716
C 7.46472 2.47252 -1.78524
C 7.49466 2.57901 -3.29128
C 7.86229 1.11454 -3.81830
C 7.89505 0.36133 -2.47035
C 6.19746 3.04628 -3.95106
C 9.08977 0.99390 -4.76245
C 10.35758 1.31527 -4.00433
N 8.10765 -1.33938 -0.03696
C 8.10322 -1.82174 -1.36413
C 8.16579 -3.29594 -1.29178
C 8.17917 -3.57215 0.08373
C 8.10813 -2.35689 0.81694
C 8.15391 -4.18464 -2.40362
C 8.22651 -4.61596 1.08219
O 8.38058 -5.83634 1.05646
C 7.88816 -3.97699 2.49768
C 8.91151 -4.46713 3.48512
O 10.10657 -4.14268 3.37044
O 8.28085 -5.05467 4.51829
C 9.25348 -5.54743 5.52973
H 6.07514 2.47490 4.30188
H 7.45865 4.40270 -1.47575
H 8.14095 -1.54927 -3.35809
H 6.60328 -2.39908 4.88468
H 6.47984 0.30679 5.65935
H 4.60208 -1.45484 4.13921
H 4.49200 0.27196 3.73877
H 4.22291 -0.20833 5.38697
H 8.76303 -0.38138 5.54055
H 9.26568 -2.02224 4.99273
H 7.36655 -2.33573 7.09096
H 8.23982 -0.90027 7.49310
H 6.50945 4.51216 4.62073
H 6.12292 5.85804 3.60170
H 7.80425 5.69712 4.16207
H 7.02804 7.37745 2.24246
H 8.26090 8.19380 1.11982
H 8.74036 7.04627 2.40306
H 8.26181 3.27177 -3.61481
H 7.04200 0.67455 -4.40429
H 6.32690 3.94909 -4.57735
H 5.46453 3.22358 -3.17522
H 5.70120 2.30244 -4.57205
H 9.01835 1.72475 -5.57172
H 9.18812 0.01521 -5.22013
H 10.39400 2.40831 -4.03647
H 11.22163 0.87683 -4.49954
H 10.27286 1.01908 -2.95231
H 8.90293 -4.94002 -2.20643
H 8.35392 -3.65893 -3.33496
H 7.12455 -4.54920 -2.35092
H 6.87822 -4.28994 2.76540
H 9.05285 -6.61369 5.67298
H 9.12887 -4.88876 6.40972
H 10.30066 -5.56481 5.25122

