%nproc=24
%mem=175gb
#p cam-b3lyp/Def2SVP td=(nstates=5)

TDDFT excited states in gaussian

0 1
Mg 0.00000 0.00000 0.00000
C -0.21700 -2.21800 2.80100
C -1.25500 2.44200 2.02600
C -0.24500 1.85000 -2.56400
C 0.14600 -2.82400 -2.03700
N -0.61700 -0.00900 2.12600
C -0.59400 -0.90800 3.10500
C -0.93600 -0.30900 4.50200
C -1.77300 0.96400 4.03200
C -1.15500 1.16800 2.66000
C -3.26300 0.68500 3.86300
C 0.34500 0.11000 5.29900
C 0.12400 0.39700 6.78700
H 1.16800 0.03300 7.73300
N -0.18500 1.96100 -0.15200
C -0.70300 2.80000 0.77700
C -0.62000 4.15600 0.19300
C -0.18700 4.01500 -1.22500
C -0.21400 2.58300 -1.38000
C -0.88700 5.40600 0.97400
C 0.18100 5.01300 -2.27700
O 0.30300 4.69000 -3.50800
C 0.31000 6.41400 -1.83700
N -0.26500 -0.41300 -2.02900
C -0.27900 0.56900 -2.93700
C -0.19600 0.02400 -4.33200
C 0.12400 -1.53300 -4.18000
C 0.08600 -1.63200 -2.63500
C -1.45100 0.20500 -5.19700
C 1.37300 -2.07000 -4.92300
C 2.62600 -1.49000 -4.30600
N 0.15000 -2.14400 0.30300
C 0.17300 -3.13600 -0.68800
C 0.17300 -4.43800 0.00400
C 0.13300 -4.11100 1.35800
C 0.08300 -2.69500 1.50200
C 0.14900 -5.71500 -0.62300
C 0.09600 -4.62900 2.71600
O 0.20800 -5.74700 3.22100
C -0.25500 -3.42800 3.70100
C 0.71700 -3.48200 4.84800
O 1.93100 -3.25500 4.66900
O 0.03800 -3.55600 6.00300
C 0.94300 -3.58300 7.18300
H -1.85900 3.22000 2.49700
H -0.21800 2.45300 -3.47400
H 0.27600 -3.74700 -2.60500
H -1.55400 -0.94900 5.13200
H -1.58500 1.83100 4.66500
H -3.48400 -0.37700 3.96900
H -3.51100 1.02700 2.85800
H -3.85200 1.30100 4.54300
H 0.66900 1.09600 4.96600
H 1.13000 -0.63900 5.18900
H -0.84400 0.02600 7.12500
H 0.06200 1.47700 6.92100
H -1.34400 5.18600 1.93800
H -1.65100 5.96300 0.43200
H 0.00700 6.02000 1.08400
H -0.63500 6.74400 -1.40500
H 0.66500 6.97000 -2.70400
H 1.04800 6.46600 -1.03600
H 0.60800 0.50100 -4.89100
H -0.69200 -2.15600 -4.54700
H -1.26700 0.74000 -6.12900
H -2.20400 0.71400 -4.59600
H -1.96700 -0.72000 -5.45300
H 1.35600 -1.75900 -5.96700
H 1.45200 -3.15700 -4.90200
H 2.71400 -0.52200 -4.79800
H 3.48700 -2.12100 -4.52900
H 2.49500 -1.30300 -3.24000
H 0.86700 -6.33300 -0.08400
H 0.40400 -5.64200 -1.68000
H -0.89100 -5.99900 -0.46300
H -1.28300 -3.58100 4.02800
H 0.69800 -4.47800 7.75500
H 0.83300 -2.61900 7.68000
H 2.00000 -3.75400 6.97600
Mg 13.13469 1.17610 1.00526
C 11.51606 3.45276 3.25824
C 15.07254 0.18829 3.63272
C 14.87776 -0.50841 -1.04206
C 11.89938 3.11092 -1.61699
N 13.19179 1.81182 3.12301
C 12.48771 2.64053 3.87922
C 12.78949 2.53859 5.39846
C 14.27374 1.93213 5.30863
C 14.17113 1.23443 3.95388
C 15.35431 2.99670 5.21699
C 11.81224 1.55840 6.13753
C 11.84833 1.64466 7.66495
H 10.60298 1.45123 8.40263
N 14.39186 -0.32656 1.32165
C 15.07471 -0.59129 2.45519
C 15.87693 -1.79115 2.17069
C 15.73751 -2.11677 0.72527
C 14.99743 -0.95916 0.26448
C 16.60966 -2.55184 3.23741
C 16.20535 -3.27186 -0.10725
O 16.17834 -3.23329 -1.38812
C 16.78269 -4.41222 0.61920
N 13.53641 1.40018 -1.02224
C 14.28254 0.49765 -1.68305
C 14.20672 0.71504 -3.17549
C 13.05749 1.80571 -3.39295
C 12.71414 2.10906 -1.91799
C 15.49518 1.19348 -3.84435
C 11.90106 1.42667 -4.35818
C 11.07772 0.30733 -3.76273
N 11.77918 2.84714 0.80965
C 11.42129 3.52056 -0.37884
C 10.56412 4.66001 0.00762
C 10.50111 4.58337 1.40714
C 11.28152 3.48643 1.86232
C 10.00471 5.61962 -0.88250
C 9.96049 5.18734 2.60366
O 9.15958 6.09239 2.83420
C 10.69616 4.55785 3.86418
C 9.64685 4.17929 4.87323
O 8.82232 3.28292 4.62169
O 9.92379 4.78165 6.04405
C 8.91700 4.42808 7.08000
H 15.88257 -0.03063 4.32901
H 15.37108 -1.12189 -1.79953
H 11.39477 3.70335 -2.38319
H 12.80624 3.48648 5.92287
H 14.45264 1.20707 6.09835
H 14.93652 3.98650 5.10800
H 15.94823 2.73913 4.34982
H 16.02792 2.92499 6.07573
H 12.16565 0.52850 5.99911
H 10.80557 1.69144 5.79177
H 12.36618 2.54599 8.01478
H 12.45772 0.82099 8.04473
H 16.66416 -1.98139 4.17284
H 17.65159 -2.63765 2.91050
H 16.20464 -3.55393 3.39376
H 17.63479 -4.07390 1.20395
H 16.97595 -5.17392 -0.13866
H 16.03940 -4.78502 1.33276
H 13.92559 -0.19816 -3.68552
H 13.45570 2.73742 -3.82093
H 15.83820 0.52675 -4.65791
H 16.25896 1.28984 -3.08416
H 15.45416 2.19908 -4.25942
H 12.30342 1.04829 -5.30109
H 11.24798 2.25920 -4.59773
H 11.64590 -0.58773 -4.03313
H 10.08167 0.28975 -4.20047
H 11.06185 0.36960 -2.66841
H 8.98048 5.77414 -0.57011
H 10.05957 5.28299 -1.91567
H 10.66479 6.47014 -0.69231
H 11.38407 5.31036 4.25159
H 8.50827 5.36850 7.46240
H 9.44670 3.77854 7.80199
H 8.01574 3.92382 6.75152

