%nproc=24
%mem=175gb
#p cam-b3lyp/Def2SVP td=(nstates=5)

TDDFT excited states in gaussian

0 1
Mg 10.51832 0.94782 0.80581
C 9.23390 -1.04219 3.50196
C 10.32136 3.63697 2.89489
C 11.21749 2.79985 -1.67382
C 9.54631 -1.60562 -1.35773
N 9.84877 1.14509 2.90462
C 9.44012 0.30962 3.84768
C 9.31820 0.94321 5.25951
C 9.12378 2.47536 4.81952
C 9.83795 2.43465 3.47008
C 7.67143 2.85309 4.58008
C 10.61963 0.75194 6.11491
C 10.46347 1.07084 7.60342
H 11.21084 0.26985 8.56899
N 11.19883 2.81112 0.74606
C 11.04822 3.76310 1.69069
C 11.71256 4.96407 1.16107
C 12.12439 4.69174 -0.24283
C 11.49736 3.40278 -0.45616
C 11.97232 6.18490 1.99506
C 12.93612 5.46930 -1.23413
O 12.96888 5.15073 -2.47521
C 13.61676 6.66953 -0.72651
N 10.21062 0.74067 -1.23986
C 10.65904 1.66824 -2.10384
C 10.56869 1.17568 -3.52848
C 10.19012 -0.37459 -3.42387
C 10.03274 -0.49384 -1.89207
C 9.54911 1.88952 -4.41576
C 11.12629 -1.37828 -4.15108
C 12.47957 -1.40264 -3.47770
N 9.73424 -1.05448 1.01577
C 9.37211 -1.94183 -0.02132
C 8.78305 -3.13791 0.61494
C 8.82259 -2.85140 1.98784
C 9.37727 -1.55899 2.19157
C 8.25787 -4.27048 -0.06885
C 8.51144 -3.34401 3.31042
O 8.10549 -4.41225 3.76629
C 8.64744 -2.14255 4.34212
C 9.44887 -2.62889 5.51843
O 10.64364 -2.94577 5.38161
O 8.74007 -2.43399 6.64537
C 9.49781 -2.89065 7.84082
H 10.08674 4.57983 3.38972
H 11.54186 3.35197 -2.55894
H 9.30901 -2.48652 -1.95803
H 8.46257 0.61006 5.83457
H 9.63504 3.15001 5.50130
H 7.01824 1.99465 4.63085
H 7.64109 3.29368 3.59215
H 7.36860 3.64401 5.27223
H 11.34952 1.52184 5.83338
H 11.01076 -0.23989 5.99694
H 9.41039 1.14689 7.90041
H 10.86694 2.06931 7.78859
H 11.40994 6.15605 2.93649
H 11.55069 7.03818 1.45284
H 13.03694 6.36282 2.16117
H 12.88078 7.35304 -0.30986
H 14.21710 7.03952 -1.55992
H 14.27566 6.37563 0.09816
H 11.52290 1.27121 -4.03194
H 9.20140 -0.58280 -3.85851
H 9.99574 2.32813 -5.32802
H 9.05983 2.65379 -3.82667
H 8.71045 1.27626 -4.74100
H 11.29809 -1.05755 -5.18151
H 10.73067 -2.38773 -4.18972
H 12.99237 -0.54495 -3.92322
H 13.00051 -2.33217 -3.69825
H 12.38769 -1.20973 -2.40253
H 8.61159 -5.14531 0.46036
H 8.56711 -4.28381 -1.11191
H 7.18607 -4.08383 0.03917
H 7.63921 -1.84205 4.62978
H 8.86282 -3.61116 8.36555
H 9.77441 -1.97030 8.38872
H 10.39177 -3.47973 7.67267

