%nproc=24
%mem=175gb
#p cam-b3lyp/Def2SVP td=(nstates=5)

TDDFT excited states in gaussian

0 1
Mg 31.53947 2.84606 2.39187
C 30.91561 5.52582 4.69595
C 30.65331 4.98945 -0.10917
C 31.64400 0.39043 0.38528
C 31.26334 0.65147 5.08505
N 30.88837 4.95976 2.41606
C 30.74772 5.89369 3.34468
C 30.48685 7.31934 2.78877
C 29.86669 6.91230 1.36448
C 30.53406 5.54994 1.18765
C 28.36156 6.70581 1.40030
C 31.80914 8.14782 2.62390
C 31.60408 9.64470 2.38086
H 32.56507 10.58139 2.95668
N 31.67683 2.81004 0.41238
C 31.28997 3.77525 -0.44785
C 31.58445 3.25711 -1.79283
C 32.02415 1.84120 -1.66416
C 31.77331 1.61430 -0.25501
C 31.51507 4.10963 -3.02645
C 32.56700 0.85081 -2.64937
O 32.65892 -0.39653 -2.36914
C 32.90043 1.36925 -3.98411
N 31.25557 0.80255 2.64839
C 31.41072 -0.05127 1.62133
C 31.42838 -1.48327 2.10032
C 31.49557 -1.40173 3.69607
C 31.41143 0.13004 3.87495
C 30.23170 -2.33858 1.68464
C 32.65631 -2.16446 4.39149
C 33.97821 -1.51566 4.04944
N 31.34438 3.03141 4.53562
C 31.21867 1.98406 5.47441
C 30.99755 2.60758 6.79530
C 30.98690 3.98480 6.52765
C 31.16706 4.20344 5.13509
C 30.79086 1.91157 8.01963
C 30.85358 5.30298 7.10499
O 30.76903 5.74538 8.24993
C 30.67506 6.35496 5.92692
C 31.60569 7.50740 6.18830
O 32.83814 7.34348 6.16022
O 30.89590 8.65020 6.21248
C 31.77678 9.82312 6.45770
H 30.17825 5.50633 -0.94346
H 31.78330 -0.48952 -0.24697
H 31.26552 0.03868 5.98902
H 29.76970 7.90292 3.35348
H 30.18656 7.59776 0.58397
H 27.97245 6.75164 2.40659
H 28.18862 5.72720 0.97199
H 27.86736 7.41823 0.73354
H 32.29129 7.86826 1.67832
H 32.45650 8.00398 3.46702
H 30.57791 9.96162 2.60329
H 31.71981 9.84182 1.31233
H 31.00369 5.06011 -2.83033
H 30.86202 3.59139 -3.73696
H 32.49243 4.26031 -3.48984
H 32.01364 1.81185 -4.43150
H 33.35638 0.53262 -4.51706
H 33.63309 2.17638 -3.87293
H 32.30753 -2.00157 1.73761
H 30.59352 -1.82277 4.16392
H 30.51924 -3.25001 1.12724
H 29.56344 -1.72641 1.09370
H 29.58824 -2.66066 2.50160
H 32.70975 -3.19142 4.02182
H 32.55441 -2.21545 5.47039
H 34.22386 -1.95363 3.07737
H 34.73079 -1.76314 4.79538
H 33.86055 -0.43553 3.90407
H 31.38433 2.41760 8.76945
H 31.06843 0.86316 7.93272
H 29.71191 2.04206 8.13841
H 29.62972 6.66608 5.92115
H 31.37757 10.34507 7.33285
H 31.80029 10.38360 5.50425
H 32.79478 9.62797 6.77399

