%nproc=24
%mem=175gb
#p cam-b3lyp/Def2SVP td=(nstates=5)

TDDFT excited states in gaussian

0 1
Mg 13.14642 1.17580 0.99914
C 13.31245 -0.17078 -2.32325
C 12.46528 -1.98499 2.08544
C 12.54974 2.39656 3.86639
C 12.70428 4.31645 -0.44534
N 12.94216 -0.74640 -0.07590
C 13.08745 -1.14671 -1.33009
C 13.06582 -2.68715 -1.52017
C 12.23614 -3.08039 -0.20265
C 12.59288 -1.88391 0.67704
C 10.73175 -3.08363 -0.41743
C 14.50494 -3.31209 -1.50057
C 14.58355 -4.76096 -1.98671
H 15.76708 -5.18205 -2.73130
N 13.07390 0.29951 2.77830
C 12.80581 -0.99777 3.03610
C 12.85262 -1.13506 4.50005
C 13.00747 0.22082 5.09362
C 12.85890 1.04490 3.91086
C 12.83345 -2.46628 5.19351
C 13.23688 0.69754 6.49587
O 13.10228 1.93072 6.81832
C 13.53236 -0.33546 7.49940
N 12.48227 3.04349 1.62602
C 12.35743 3.32968 2.93385
C 12.13311 4.80731 3.14990
C 12.37551 5.49153 1.72489
C 12.62139 4.22565 0.87490
C 10.75254 5.20082 3.67487
C 13.42187 6.63784 1.66346
C 14.80646 6.08695 1.91805
N 13.20942 1.99076 -1.00084
C 12.96949 3.32832 -1.38484
C 13.01303 3.37203 -2.86085
C 13.25434 2.04207 -3.23698
C 13.33405 1.22355 -2.07803
C 12.79399 4.52539 -3.66576
C 13.44918 1.14267 -4.35135
O 13.57142 1.28049 -5.56781
C 13.36962 -0.35138 -3.81480
C 14.53560 -1.11212 -4.38426
O 15.70021 -0.81793 -4.06218
O 14.07777 -2.19382 -5.04053
C 15.19780 -2.98664 -5.61393
H 12.02317 -2.89016 2.50269
H 12.44386 2.88818 4.83622
H 12.67334 5.27505 -0.96764
H 12.54203 -3.02835 -2.40505
H 12.60792 -4.00185 0.23788
H 10.46315 -2.70472 -1.39233
H 10.32225 -2.45198 0.35998
H 10.32740 -4.08382 -0.23728
H 14.82299 -3.44600 -0.45862
H 15.19125 -2.70578 -2.05914
H 13.67038 -5.07046 -2.50947
H 14.62873 -5.41767 -1.11452
H 12.54728 -3.27309 4.50754
H 12.02101 -2.43283 5.92746
H 13.76944 -2.68458 5.71211
H 12.71303 -1.04955 7.53464
H 13.75369 0.20691 8.42066
H 14.42053 -0.89112 7.17846
H 12.84822 5.20754 3.85810
H 11.45865 5.95817 1.33571
H 10.79224 5.77468 4.61995
H 10.16598 4.30050 3.80102
H 10.14271 5.77874 2.98254
H 13.22902 7.36930 2.45208
H 13.42078 7.17356 0.72006
H 14.85942 6.04758 3.01018
H 15.56452 6.75236 1.50986
H 14.89571 5.05953 1.54645
H 13.54988 4.51307 -4.43970
H 12.84357 5.43773 -3.07504
H 11.78127 4.32329 -4.02468
H 12.41365 -0.76511 -4.13812
H 15.00249 -3.08642 -6.68612
H 15.23821 -3.91926 -5.02035
H 16.18181 -2.53261 -5.61956

