%nproc=24
%mem=175gb
#p cam-b3lyp/Def2SVP td=(nstates=5)

TDDFT excited states in gaussian

0 1
Mg 8.94101 0.80923 0.68518
C 8.88203 -1.39805 3.51423
C 7.83061 3.26959 2.77042
C 8.55140 2.65715 -1.86449
C 8.93308 -2.02135 -1.34792
N 8.45638 0.81276 2.84327
C 8.53116 -0.06869 3.82907
C 8.29005 0.52540 5.24275
C 7.42622 1.81117 4.81913
C 7.95725 2.00579 3.40039
C 5.93443 1.53346 4.73683
C 9.62648 0.93981 5.95284
C 9.49462 1.23807 7.44797
H 10.59928 0.87313 8.33059
N 8.76298 2.78069 0.54306
C 8.31672 3.62807 1.49389
C 8.35816 4.96870 0.88960
C 8.70905 4.82396 -0.54937
C 8.66677 3.38199 -0.68726
C 8.15784 6.22616 1.68464
C 9.01745 5.81930 -1.62659
O 9.06177 5.48204 -2.86235
C 9.17384 7.21800 -1.20154
N 8.55386 0.39015 -1.31403
C 8.48371 1.37572 -2.22597
C 8.47273 0.81996 -3.63004
C 8.79529 -0.73898 -3.47756
C 8.85128 -0.83634 -1.93718
C 7.16695 0.99581 -4.40489
C 9.99256 -1.29339 -4.29723
C 11.28781 -0.71504 -3.77450
N 9.09877 -1.32412 0.98853
C 9.04658 -2.33225 0.00109
C 9.08122 -3.63158 0.70321
C 9.12832 -3.28652 2.06233
C 9.10299 -1.87220 2.19851
C 9.01949 -4.91266 0.08584
C 9.18297 -3.79727 3.41320
O 9.31141 -4.91303 3.91551
C 8.89829 -2.59930 4.41830
C 9.93929 -2.64576 5.50305
O 11.13693 -2.43958 5.23896
O 9.32663 -2.70946 6.69928
C 10.31757 -2.74635 7.80765
H 7.26912 4.05100 3.28326
H 8.52572 3.24929 -2.78219
H 9.03280 -2.94950 -1.91472
H 7.71454 -0.10620 5.90881
H 7.66833 2.67112 5.43819
H 5.71245 0.48411 4.86227
H 5.62608 1.87079 3.75593
H 5.39453 2.15842 5.45396
H 9.93272 1.92946 5.59013
H 10.38605 0.19841 5.79789
H 8.54173 0.88089 7.85707
H 9.45514 2.32163 7.58350
H 7.75368 6.01161 2.68165
H 7.36561 6.79613 1.18728
H 9.05866 6.84165 1.73344
H 8.26217 7.55039 -0.71078
H 9.47876 7.76317 -2.09691
H 9.97130 7.26874 -0.45180
H 9.24423 1.28098 -4.23448
H 7.94981 -1.36358 -3.80139
H 7.29675 1.53488 -5.36230
H 6.46026 1.51337 -3.76987
H 6.63812 0.07227 -4.63430
H 9.91290 -0.98221 -5.34173
H 10.05787 -2.37627 -4.28790
H 11.34549 0.25509 -4.27711
H 12.12824 -1.35072 -4.04582
H 11.22720 -0.52478 -2.69665
H 9.75833 -5.53125 0.57774
H 9.20342 -4.84745 -0.98453
H 7.98486 -5.18686 0.30859
H 7.89027 -2.73466 4.81219
H 10.09949 -3.63930 8.40160
H 10.23159 -1.76860 8.31791
H 11.35578 -2.91452 7.54635

