%nproc=24
%mem=175gb
#p cam-b3lyp/Def2SVP td=(nstates=5)

TDDFT excited states in gaussian

0 1
Mg 13.14664 1.17902 0.99235
C 12.97130 3.27473 -1.91563
C 12.66085 -1.48489 -1.08182
C 12.84621 -0.64655 3.57003
C 12.47698 4.01419 2.90521
N 12.86648 1.04044 -1.19730
C 12.87997 1.89768 -2.20690
C 12.87139 1.23721 -3.61163
C 12.20255 -0.16726 -3.21292
C 12.62850 -0.23363 -1.74771
C 10.68404 -0.14801 -3.26847
C 14.31722 1.04156 -4.18897
C 14.37322 0.68924 -5.67709
H 15.47546 1.21717 -6.47635
N 13.29218 -0.78973 1.19581
C 13.08323 -1.72377 0.24440
C 13.29586 -3.02244 0.90197
C 13.48583 -2.78505 2.35878
C 13.18824 -1.36888 2.43609
C 13.38352 -4.31436 0.14257
C 13.85941 -3.68645 3.49637
O 13.73432 -3.31699 4.71730
C 14.28762 -5.04731 3.14114
N 12.51530 1.57330 2.93356
C 12.53062 0.61252 3.87409
C 12.29913 1.19172 5.24935
C 12.36608 2.77877 5.06397
C 12.54370 2.84725 3.53127
C 10.97727 0.81288 5.91685
C 13.37347 3.55011 5.96000
C 14.78965 3.19044 5.57212
N 12.96841 3.29984 0.62031
C 12.65767 4.30746 1.55957
C 12.53554 5.57618 0.81267
C 12.76281 5.21177 -0.52301
C 12.98922 3.81126 -0.60545
C 12.20274 6.84208 1.37201
C 12.85215 5.69171 -1.88330
O 12.83505 6.80055 -2.41614
C 12.86594 4.43884 -2.86133
C 13.97777 4.63732 -3.85478
O 15.16421 4.64632 -3.48213
O 13.47373 4.56609 -5.10027
C 14.54018 4.74599 -6.12113
H 12.28811 -2.36323 -1.60953
H 12.83818 -1.21208 4.50470
H 12.36684 4.95903 3.44170
H 12.25997 1.74438 -4.34833
H 12.64138 -0.98747 -3.77510
H 10.30019 0.84430 -3.45322
H 10.34981 -0.50961 -2.30484
H 10.32450 -0.87346 -4.00385
H 14.75224 0.12822 -3.76316
H 14.92344 1.90591 -3.99921
H 13.41457 0.86751 -6.17924
H 14.52979 -0.38794 -5.77302
H 13.04063 -4.19644 -0.89277
H 12.65735 -4.99982 0.59279
H 14.37605 -4.76697 0.19452
H 13.49333 -5.54304 2.58814
H 14.59815 -5.51033 4.07979
H 15.14659 -4.97833 2.46436
H 13.07965 0.88472 5.93466
H 11.40148 3.25647 5.29019
H 11.10929 0.32728 6.90216
H 10.42847 0.16652 5.24485
H 10.28148 1.63710 6.06425
H 13.25353 3.25507 7.00533
H 13.25544 4.62758 5.91392
H 14.96480 2.25700 6.11535
H 15.48261 3.96736 5.88873
H 14.85966 2.96675 4.50127
H 12.86780 7.56637 0.92079
H 12.29761 6.83517 2.45586
H 11.16106 6.92906 1.05169
H 11.88929 4.38956 -3.34435
H 14.22890 5.57367 -6.76590
H 14.66708 3.75602 -6.59822
H 15.50715 5.09620 -5.77941

