%nproc=24
%mem=175gb
#p cam-b3lyp/Def2SVP td=(nstates=5)

TDDFT excited states in gaussian

0 1
Mg 0.00000 0.00000 0.00000
C -0.21700 -2.21800 2.80100
C -1.25500 2.44200 2.02600
C -0.24500 1.85000 -2.56400
C 0.14600 -2.82400 -2.03700
N -0.61700 -0.00900 2.12600
C -0.59400 -0.90800 3.10500
C -0.93600 -0.30900 4.50200
C -1.77300 0.96400 4.03200
C -1.15500 1.16800 2.66000
C -3.26300 0.68500 3.86300
C 0.34500 0.11000 5.29900
C 0.12400 0.39700 6.78700
H 1.16800 0.03300 7.73300
N -0.18500 1.96100 -0.15200
C -0.70300 2.80000 0.77700
C -0.62000 4.15600 0.19300
C -0.18700 4.01500 -1.22500
C -0.21400 2.58300 -1.38000
C -0.88700 5.40600 0.97400
C 0.18100 5.01300 -2.27700
O 0.30300 4.69000 -3.50800
C 0.31000 6.41400 -1.83700
N -0.26500 -0.41300 -2.02900
C -0.27900 0.56900 -2.93700
C -0.19600 0.02400 -4.33200
C 0.12400 -1.53300 -4.18000
C 0.08600 -1.63200 -2.63500
C -1.45100 0.20500 -5.19700
C 1.37300 -2.07000 -4.92300
C 2.62600 -1.49000 -4.30600
N 0.15000 -2.14400 0.30300
C 0.17300 -3.13600 -0.68800
C 0.17300 -4.43800 0.00400
C 0.13300 -4.11100 1.35800
C 0.08300 -2.69500 1.50200
C 0.14900 -5.71500 -0.62300
C 0.09600 -4.62900 2.71600
O 0.20800 -5.74700 3.22100
C -0.25500 -3.42800 3.70100
C 0.71700 -3.48200 4.84800
O 1.93100 -3.25500 4.66900
O 0.03800 -3.55600 6.00300
C 0.94300 -3.58300 7.18300
H -1.85900 3.22000 2.49700
H -0.21800 2.45300 -3.47400
H 0.27600 -3.74700 -2.60500
H -1.55400 -0.94900 5.13200
H -1.58500 1.83100 4.66500
H -3.48400 -0.37700 3.96900
H -3.51100 1.02700 2.85800
H -3.85200 1.30100 4.54300
H 0.66900 1.09600 4.96600
H 1.13000 -0.63900 5.18900
H -0.84400 0.02600 7.12500
H 0.06200 1.47700 6.92100
H -1.34400 5.18600 1.93800
H -1.65100 5.96300 0.43200
H 0.00700 6.02000 1.08400
H -0.63500 6.74400 -1.40500
H 0.66500 6.97000 -2.70400
H 1.04800 6.46600 -1.03600
H 0.60800 0.50100 -4.89100
H -0.69200 -2.15600 -4.54700
H -1.26700 0.74000 -6.12900
H -2.20400 0.71400 -4.59600
H -1.96700 -0.72000 -5.45300
H 1.35600 -1.75900 -5.96700
H 1.45200 -3.15700 -4.90200
H 2.71400 -0.52200 -4.79800
H 3.48700 -2.12100 -4.52900
H 2.49500 -1.30300 -3.24000
H 0.86700 -6.33300 -0.08400
H 0.40400 -5.64200 -1.68000
H -0.89100 -5.99900 -0.46300
H -1.28300 -3.58100 4.02800
H 0.69800 -4.47800 7.75500
H 0.83300 -2.61900 7.68000
H 2.00000 -3.75400 6.97600
Mg 7.88122 0.70239 0.60626
C 5.79498 2.55845 2.86052
C 10.06033 0.29163 3.19805
C 9.94473 -0.54439 -1.45648
C 6.14628 2.20503 -2.01629
N 7.82362 1.38331 2.70990
C 6.95161 2.02879 3.46970
C 7.30194 2.04189 4.98187
C 8.88824 1.82184 4.86311
C 8.93367 1.08802 3.52441
C 9.66700 3.11926 4.72326
C 6.61613 0.86752 5.76451
C 6.66247 0.99694 7.28860
H 5.52088 0.51760 8.06286
N 9.47988 -0.43209 0.91578
C 10.23143 -0.49111 2.03514
C 11.30117 -1.46014 1.75086
C 11.21623 -1.84504 0.31582
C 10.20114 -0.91948 -0.14571
C 12.22324 -1.98857 2.81104
C 11.93926 -2.86716 -0.50801
O 11.87589 -2.86749 -1.78817
C 12.79823 -3.81010 0.22310
N 8.17060 0.97032 -1.43502
C 9.10378 0.26613 -2.09926
C 8.94401 0.42169 -3.59281
C 7.55471 1.18650 -3.79892
C 7.17843 1.43043 -2.32098
C 10.05775 1.18936 -4.30460
C 6.50880 0.50843 -4.72571
C 6.00359 -0.76585 -4.08825
N 6.14797 1.97836 0.41706
C 5.60794 2.51262 -0.77332
C 4.50227 3.41194 -0.38457
C 4.49053 3.35588 1.01729
C 5.52942 2.49896 1.47103
C 3.70220 4.18037 -1.27649
C 3.84231 3.83507 2.21683
O 2.84618 4.51766 2.45246
C 4.73868 3.43908 3.46826
C 3.83890 2.83583 4.51182
O 3.25870 1.75668 4.29875
O 3.98207 3.51627 5.66372
C 3.11780 2.94845 6.73257
H 10.91416 0.29804 3.87614
H 10.55899 -1.03395 -2.21575
H 5.49350 2.63457 -2.77921
H 7.09311 2.97652 5.48845
H 9.25925 1.18341 5.66068
H 9.01335 3.97105 4.60771
H 10.28755 2.99670 3.84522
H 10.35556 3.23820 5.56473
H 7.21210 -0.04508 5.63523
H 5.60087 0.73750 5.44360
H 6.94664 2.00695 7.60806
H 7.46602 0.36024 7.66665
H 12.15393 -1.40006 3.73422
H 13.24637 -1.82030 2.45783
H 12.08435 -3.05584 2.99627
H 13.55144 -3.25637 0.77853
H 13.15893 -4.51784 -0.52582
H 12.18692 -4.33876 0.96299
H 8.88854 -0.54480 -4.07854
H 7.69871 2.17738 -4.25419
H 10.53858 0.60950 -5.11493
H 10.78958 1.49108 -3.56708
H 9.75836 2.14280 -4.73648
H 6.97239 0.21939 -5.67213
H 5.66375 1.14622 -4.96259
H 6.77105 -1.49765 -4.35764
H 5.03419 -1.04129 -4.49865
H 5.99628 -0.68306 -2.99520
H 2.67878 4.08268 -0.93951
H 3.81699 3.84311 -2.30452
H 4.13330 5.17273 -1.11948
H 5.22541 4.34823 3.82340
H 2.49582 3.76655 7.10880
H 3.80816 2.46879 7.45165
H 2.36388 2.22800 6.43759

