%nproc=24
%mem=175gb
#p cam-b3lyp/Def2SVP td=(nstates=5)

TDDFT excited states in gaussian

0 1
Mg 0.00000 0.00000 0.00000
C -0.21700 -2.21800 2.80100
C -1.25500 2.44200 2.02600
C -0.24500 1.85000 -2.56400
C 0.14600 -2.82400 -2.03700
N -0.61700 -0.00900 2.12600
C -0.59400 -0.90800 3.10500
C -0.93600 -0.30900 4.50200
C -1.77300 0.96400 4.03200
C -1.15500 1.16800 2.66000
C -3.26300 0.68500 3.86300
C 0.34500 0.11000 5.29900
C 0.12400 0.39700 6.78700
H 1.16800 0.03300 7.73300
N -0.18500 1.96100 -0.15200
C -0.70300 2.80000 0.77700
C -0.62000 4.15600 0.19300
C -0.18700 4.01500 -1.22500
C -0.21400 2.58300 -1.38000
C -0.88700 5.40600 0.97400
C 0.18100 5.01300 -2.27700
O 0.30300 4.69000 -3.50800
C 0.31000 6.41400 -1.83700
N -0.26500 -0.41300 -2.02900
C -0.27900 0.56900 -2.93700
C -0.19600 0.02400 -4.33200
C 0.12400 -1.53300 -4.18000
C 0.08600 -1.63200 -2.63500
C -1.45100 0.20500 -5.19700
C 1.37300 -2.07000 -4.92300
C 2.62600 -1.49000 -4.30600
N 0.15000 -2.14400 0.30300
C 0.17300 -3.13600 -0.68800
C 0.17300 -4.43800 0.00400
C 0.13300 -4.11100 1.35800
C 0.08300 -2.69500 1.50200
C 0.14900 -5.71500 -0.62300
C 0.09600 -4.62900 2.71600
O 0.20800 -5.74700 3.22100
C -0.25500 -3.42800 3.70100
C 0.71700 -3.48200 4.84800
O 1.93100 -3.25500 4.66900
O 0.03800 -3.55600 6.00300
C 0.94300 -3.58300 7.18300
H -1.85900 3.22000 2.49700
H -0.21800 2.45300 -3.47400
H 0.27600 -3.74700 -2.60500
H -1.55400 -0.94900 5.13200
H -1.58500 1.83100 4.66500
H -3.48400 -0.37700 3.96900
H -3.51100 1.02700 2.85800
H -3.85200 1.30100 4.54300
H 0.66900 1.09600 4.96600
H 1.13000 -0.63900 5.18900
H -0.84400 0.02600 7.12500
H 0.06200 1.47700 6.92100
H -1.34400 5.18600 1.93800
H -1.65100 5.96300 0.43200
H 0.00700 6.02000 1.08400
H -0.63500 6.74400 -1.40500
H 0.66500 6.97000 -2.70400
H 1.04800 6.46600 -1.03600
H 0.60800 0.50100 -4.89100
H -0.69200 -2.15600 -4.54700
H -1.26700 0.74000 -6.12900
H -2.20400 0.71400 -4.59600
H -1.96700 -0.72000 -5.45300
H 1.35600 -1.75900 -5.96700
H 1.45200 -3.15700 -4.90200
H 2.71400 -0.52200 -4.79800
H 3.48700 -2.12100 -4.52900
H 2.49500 -1.30300 -3.24000
H 0.86700 -6.33300 -0.08400
H 0.40400 -5.64200 -1.68000
H -0.89100 -5.99900 -0.46300
H -1.28300 -3.58100 4.02800
H 0.69800 -4.47800 7.75500
H 0.83300 -2.61900 7.68000
H 2.00000 -3.75400 6.97600
Mg 31.53889 2.84371 2.40227
C 31.31805 0.62099 5.21115
C 30.28220 5.28528 4.42565
C 31.29704 4.70255 -0.15774
C 31.67885 0.02406 0.35882
N 30.91964 2.83241 4.52563
C 30.93863 1.94623 5.50984
C 30.60498 2.53110 6.90847
C 29.76032 3.81321 6.43771
C 30.37802 4.01902 5.05613
C 28.27866 3.52580 6.26046
C 31.89118 2.95079 7.70318
C 31.66354 3.24015 9.18851
H 32.71315 2.87802 10.13701
N 31.35609 4.81465 2.25892
C 30.84496 5.65388 3.18397
C 30.91473 6.99797 2.59007
C 31.35633 6.86332 1.17530
C 31.33307 5.42185 1.02795
C 30.65591 8.24977 3.37711
C 31.72469 7.86648 0.12450
O 31.84894 7.53614 -1.10768
C 31.84410 9.26392 0.56540
N 31.28108 2.43270 0.38065
C 31.26133 3.42264 -0.52905
C 31.34252 2.87433 -1.93374
C 31.66597 1.31683 -1.76895
C 31.62578 1.21162 -0.22859
C 30.08677 3.04543 -2.78826
C 32.91628 0.77497 -2.51446
C 34.17198 1.35931 -1.90853
N 31.69248 0.70990 2.70446
C 31.70960 -0.29327 1.71076
C 31.70933 -1.59607 2.40728
C 31.66850 -1.25797 3.76835
C 31.62459 0.15540 3.90961
C 31.69563 -2.87422 1.78097
C 31.64183 -1.77555 5.11746
O 31.74641 -2.89308 5.62137
C 31.28605 -0.58494 6.10855
C 32.25716 -0.63011 7.25634
O 33.46753 -0.41438 7.06906
O 31.57104 -0.70438 8.41137
C 32.49064 -0.74045 9.57964
H 29.68405 6.06010 4.90602
H 31.32484 5.29940 -1.07233
H 31.82059 -0.90035 -0.20514
H 29.99328 1.89205 7.53394
H 29.95693 4.67146 7.07498
H 28.05672 2.47431 6.36654
H 28.03014 3.86626 5.26378
H 27.69034 4.14323 6.94529
H 32.21254 3.94442 7.36529
H 32.66424 2.21541 7.59263
H 30.68940 2.87431 9.53515
H 31.60790 4.32267 9.32661
H 30.19146 8.02715 4.34568
H 29.89244 8.81699 2.83375
H 31.54747 8.87110 3.48545
H 30.90106 9.58747 0.99951
H 32.20077 9.81593 -0.30635
H 32.59251 9.31607 1.36401
H 32.14716 3.34381 -2.48623
H 30.84697 0.68823 -2.14834
H 30.27261 3.59048 -3.73296
H 29.33792 3.55477 -2.19637
H 29.57999 2.11956 -3.05498
H 32.90017 1.09118 -3.56036
H 32.98859 -0.30748 -2.50636
H 34.25421 2.33248 -2.40175
H 35.03231 0.73082 -2.12960
H 34.04244 1.54339 -0.83569
H 32.40650 -3.49039 2.31529
H 31.94596 -2.80204 0.72461
H 30.65103 -3.15664 1.93691
H 30.25627 -0.72926 6.43764
H 32.24205 -1.63802 10.15432
H 32.36582 0.23395 10.08828
H 33.54439 -0.90015 9.38328
158

Mg 0.00000 0.00000 0.00000
C -0.21700 -2.21800 2.80100
C -1.25500 2.44200 2.02600
C -0.24500 1.85000 -2.56400
C 0.14600 -2.82400 -2.03700
N -0.61700 -0.00900 2.12600
C -0.59400 -0.90800 3.10500
C -0.93600 -0.30900 4.50200
C -1.77300 0.96400 4.03200
C -1.15500 1.16800 2.66000
C -3.26300 0.68500 3.86300
C 0.34500 0.11000 5.29900
C 0.12400 0.39700 6.78700
H 1.16800 0.03300 7.73300
N -0.18500 1.96100 -0.15200
C -0.70300 2.80000 0.77700
C -0.62000 4.15600 0.19300
C -0.18700 4.01500 -1.22500
C -0.21400 2.58300 -1.38000
C -0.88700 5.40600 0.97400
C 0.18100 5.01300 -2.27700
O 0.30300 4.69000 -3.50800
C 0.31000 6.41400 -1.83700
N -0.26500 -0.41300 -2.02900
C -0.27900 0.56900 -2.93700
C -0.19600 0.02400 -4.33200
C 0.12400 -1.53300 -4.18000
C 0.08600 -1.63200 -2.63500
C -1.45100 0.20500 -5.19700
C 1.37300 -2.07000 -4.92300
C 2.62600 -1.49000 -4.30600
N 0.15000 -2.14400 0.30300
C 0.17300 -3.13600 -0.68800
C 0.17300 -4.43800 0.00400
C 0.13300 -4.11100 1.35800
C 0.08300 -2.69500 1.50200
C 0.14900 -5.71500 -0.62300
C 0.09600 -4.62900 2.71600
O 0.20800 -5.74700 3.22100
C -0.25500 -3.42800 3.70100
C 0.71700 -3.48200 4.84800
O 1.93100 -3.25500 4.66900
O 0.03800 -3.55600 6.00300
C 0.94300 -3.58300 7.18300
H -1.85900 3.22000 2.49700
H -0.21800 2.45300 -3.47400
H 0.27600 -3.74700 -2.60500
H -1.55400 -0.94900 5.13200
H -1.58500 1.83100 4.66500
H -3.48400 -0.37700 3.96900
H -3.51100 1.02700 2.85800
H -3.85200 1.30100 4.54300
H 0.66900 1.09600 4.96600
H 1.13000 -0.63900 5.18900
H -0.84400 0.02600 7.12500
H 0.06200 1.47700 6.92100
H -1.34400 5.18600 1.93800
H -1.65100 5.96300 0.43200
H 0.00700 6.02000 1.08400
H -0.63500 6.74400 -1.40500
H 0.66500 6.97000 -2.70400
H 1.04800 6.46600 -1.03600
H 0.60800 0.50100 -4.89100
H -0.69200 -2.15600 -4.54700
H -1.26700 0.74000 -6.12900
H -2.20400 0.71400 -4.59600
H -1.96700 -0.72000 -5.45300
H 1.35600 -1.75900 -5.96700
H 1.45200 -3.15700 -4.90200
H 2.71400 -0.52200 -4.79800
H 3.48700 -2.12100 -4.52900
H 2.49500 -1.30300 -3.24000
H 0.86700 -6.33300 -0.08400
H 0.40400 -5.64200 -1.68000
H -0.89100 -5.99900 -0.46300
H -1.28300 -3.58100 4.02800
H 0.69800 -4.47800 7.75500
H 0.83300 -2.61900 7.68000
H 2.00000 -3.75400 6.97600
Mg 31.53934 2.84370 2.40183
C 31.48036 0.63642 5.23088
C 30.42895 5.30407 4.48707
C 31.14973 4.69163 -0.14784
C 31.53141 0.01313 0.36873
N 31.05471 2.84724 4.55992
C 31.12949 1.96578 5.54572
C 30.88839 2.55988 6.95940
C 30.02455 3.84565 6.53578
C 30.55559 4.04026 5.11705
C 28.53276 3.56793 6.45349
C 32.22482 2.97429 7.66949
C 32.09295 3.27255 9.16462
H 33.19761 2.90761 10.04724
N 31.36131 4.81517 2.25971
C 30.91505 5.66255 3.21054
C 30.95650 7.00317 2.60625
C 31.30738 6.85844 1.16728
C 31.26510 5.41646 1.02939
C 30.75618 8.26063 3.40129
C 31.61579 7.85378 0.09006
O 31.66010 7.51652 -1.14570
C 31.77217 9.25248 0.51512
N 31.15220 2.42462 0.40262
C 31.08205 3.41020 -0.50932
C 31.07106 2.85443 -1.91338
C 31.39362 1.29550 -1.76091
C 31.44961 1.19814 -0.22053
C 29.76528 3.03028 -2.68824
C 32.59089 0.74109 -2.58058
C 33.88614 1.31943 -2.05785
N 31.69710 0.71036 2.70518
C 31.64491 -0.29777 1.71774
C 31.67955 -1.59710 2.41986
C 31.72665 -1.25204 3.77898
C 31.70132 0.16228 3.91516
C 31.61782 -2.87818 1.80249
C 31.78130 -1.76279 5.12985
O 31.90974 -2.87855 5.63216
C 31.49662 -0.56483 6.13495
C 32.53762 -0.61128 7.21970
O 33.73527 -0.40510 6.95561
O 31.92496 -0.67499 8.41593
C 32.91590 -0.71188 9.52430
H 29.86745 6.08548 4.99991
H 31.12405 5.28377 -1.06554
H 31.63114 -0.91503 -0.19807
H 30.31287 1.92828 7.62547
H 30.26666 4.70559 7.15484
H 28.31078 2.51859 6.57892
H 28.22441 3.90526 5.47258
H 27.99286 4.19289 7.17061
H 32.53106 3.96393 7.30678
H 32.98438 2.23288 7.51454
H 31.14006 2.91536 9.57372
H 32.05347 4.35610 9.30015
H 30.35201 8.04609 4.39830
H 29.96394 8.83061 2.90393
H 31.65699 8.87612 3.45009
H 30.86051 9.58487 1.00587
H 32.07710 9.79765 -0.38026
H 32.56963 9.30321 1.26485
H 31.84256 3.31545 -2.51783
H 30.54814 0.67089 -2.08474
H 29.89508 3.56935 -3.64565
H 29.05859 3.54784 -2.05321
H 29.23645 2.10675 -2.91765
H 32.51123 1.05227 -3.62508
H 32.65620 -0.34180 -2.57125
H 33.94383 2.28956 -2.56046
H 34.72658 0.68375 -2.32916
H 33.82554 1.50970 -0.97999
H 32.35666 -3.49677 2.29439
H 31.80175 -2.81297 0.73212
H 30.58319 -3.15238 2.02525
H 30.48860 -0.70019 6.52884
H 32.69782 -1.60482 10.11825
H 32.82993 0.26587 10.03456
H 33.95412 -0.88004 9.26300
158

Mg 0.00000 0.00000 0.00000
C -0.21700 -2.21800 2.80100
C -1.25500 2.44200 2.02600
C -0.24500 1.85000 -2.56400
C 0.14600 -2.82400 -2.03700
N -0.61700 -0.00900 2.12600
C -0.59400 -0.90800 3.10500
C -0.93600 -0.30900 4.50200
C -1.77300 0.96400 4.03200
C -1.15500 1.16800 2.66000
C -3.26300 0.68500 3.86300
C 0.34500 0.11000 5.29900
C 0.12400 0.39700 6.78700
H 1.16800 0.03300 7.73300
N -0.18500 1.96100 -0.15200
C -0.70300 2.80000 0.77700
C -0.62000 4.15600 0.19300
C -0.18700 4.01500 -1.22500
C -0.21400 2.58300 -1.38000
C -0.88700 5.40600 0.97400
C 0.18100 5.01300 -2.27700
O 0.30300 4.69000 -3.50800
C 0.31000 6.41400 -1.83700
N -0.26500 -0.41300 -2.02900
C -0.27900 0.56900 -2.93700
C -0.19600 0.02400 -4.33200
C 0.12400 -1.53300 -4.18000
C 0.08600 -1.63200 -2.63500
C -1.45100 0.20500 -5.19700
C 1.37300 -2.07000 -4.92300
C 2.62600 -1.49000 -4.30600
N 0.15000 -2.14400 0.30300
C 0.17300 -3.13600 -0.68800
C 0.17300 -4.43800 0.00400
C 0.13300 -4.11100 1.35800
C 0.08300 -2.69500 1.50200
C 0.14900 -5.71500 -0.62300
C 0.09600 -4.62900 2.71600
O 0.20800 -5.74700 3.22100
C -0.25500 -3.42800 3.70100
C 0.71700 -3.48200 4.84800
O 1.93100 -3.25500 4.66900
O 0.03800 -3.55600 6.00300
C 0.94300 -3.58300 7.18300
H -1.85900 3.22000 2.49700
H -0.21800 2.45300 -3.47400
H 0.27600 -3.74700 -2.60500
H -1.55400 -0.94900 5.13200
H -1.58500 1.83100 4.66500
H -3.48400 -0.37700 3.96900
H -3.51100 1.02700 2.85800
H -3.85200 1.30100 4.54300
H 0.66900 1.09600 4.96600
H 1.13000 -0.63900 5.18900
H -0.84400 0.02600 7.12500
H 0.06200 1.47700 6.92100
H -1.34400 5.18600 1.93800
H -1.65100 5.96300 0.43200
H 0.00700 6.02000 1.08400
H -0.63500 6.74400 -1.40500
H 0.66500 6.97000 -2.70400
H 1.04800 6.46600 -1.03600
H 0.60800 0.50100 -4.89100
H -0.69200 -2.15600 -4.54700
H -1.26700 0.74000 -6.12900
H -2.20400 0.71400 -4.59600
H -1.96700 -0.72000 -5.45300
H 1.35600 -1.75900 -5.96700
H 1.45200 -3.15700 -4.90200
H 2.71400 -0.52200 -4.79800
H 3.48700 -2.12100 -4.52900
H 2.49500 -1.30300 -3.24000
H 0.86700 -6.33300 -0.08400
H 0.40400 -5.64200 -1.68000
H -0.89100 -5.99900 -0.46300
H -1.28300 -3.58100 4.02800
H 0.69800 -4.47800 7.75500
H 0.83300 -2.61900 7.68000
H 2.00000 -3.75400 6.97600
Mg 31.53977 2.84368 2.40136
C 31.64370 0.65080 5.24029
C 30.57939 5.32210 4.53905
C 31.00326 4.68180 -0.12864
C 31.38482 0.00329 0.38794
N 31.19176 2.86127 4.58559
C 31.32236 1.98415 5.56944
C 31.17463 2.58688 6.99228
C 30.29464 3.87668 6.61688
C 30.73677 4.06054 5.16658
C 28.79877 3.60920 6.62994
C 32.55583 2.99524 7.61480
C 32.52023 3.30177 9.11364
H 33.67567 2.93330 9.92707
N 31.36657 4.81565 2.26017
C 30.98673 5.67084 3.23261
C 30.99924 7.00816 2.61975
C 31.25799 6.85386 1.16237
C 31.19732 5.41157 1.03512
C 30.85784 8.27090 3.41907
C 31.50485 7.84168 0.06261
O 31.46911 7.49805 -1.17168
C 31.69716 9.24130 0.46951
N 31.02490 2.41756 0.43269
C 30.90428 3.39913 -0.47830
C 30.80129 2.83657 -1.87591
C 31.12219 1.27614 -1.73567
C 31.27421 1.18595 -0.20134
C 29.45062 3.01791 -2.56814
C 32.26177 0.70920 -2.62594
C 33.59121 1.28086 -2.18871
N 31.70177 0.71079 2.70561
C 31.58076 -0.30178 1.72880
C 31.65062 -1.59786 2.43430
C 31.78539 -1.24648 3.78591
C 31.77829 0.16864 3.91585
C 31.54150 -2.88149 1.82888
C 31.92136 -1.75097 5.13339
O 32.07352 -2.86514 5.63260
C 31.70857 -0.54609 6.14797
C 32.81535 -0.59463 7.16542
O 33.99540 -0.39829 6.82552
O 32.27866 -0.64810 8.39809
C 33.33703 -0.68661 9.44221
H 30.05657 6.11000 5.08196
H 30.92399 5.26960 -1.04607
H 31.44241 -0.92832 -0.17903
H 30.63783 1.96268 7.69654
H 30.58102 4.73790 7.21491
H 28.57798 2.56209 6.77468
H 28.43169 3.94390 5.66855
H 28.30927 4.24151 7.37621
H 32.84540 3.98088 7.22827
H 33.29909 2.24769 7.41640
H 31.59252 2.95339 9.58368
H 32.49671 4.38623 9.24559
H 30.51569 8.06414 4.44063
H 30.03981 8.84406 2.96942
H 31.76410 8.88019 3.40790
H 30.82042 9.58258 1.01478
H 31.94891 9.77988 -0.44614
H 32.54049 9.29003 1.16739
H 31.53639 3.28911 -2.53008
H 30.25379 0.65600 -2.00241
H 29.52365 3.55134 -3.53468
H 28.78878 3.54361 -1.89276
H 28.90215 2.09706 -2.75894
H 32.11874 1.01581 -3.66502
H 32.32017 -0.37406 -2.61495
H 33.62380 2.24807 -2.69913
H 34.40860 0.63788 -2.50887
H 33.59977 1.47684 -1.11021
H 32.30557 -3.50290 2.27670
H 31.65823 -2.82284 0.74874
H 30.52107 -3.14721 2.11765
H 30.72640 -0.67233 6.60512
H 33.15064 -1.57505 10.05346
H 33.28995 0.29422 9.95163
H 34.35560 -0.86345 9.11711
158

Mg 0.00000 0.00000 0.00000
C -0.21700 -2.21800 2.80100
C -1.25500 2.44200 2.02600
C -0.24500 1.85000 -2.56400
C 0.14600 -2.82400 -2.03700
N -0.61700 -0.00900 2.12600
C -0.59400 -0.90800 3.10500
C -0.93600 -0.30900 4.50200
C -1.77300 0.96400 4.03200
C -1.15500 1.16800 2.66000
C -3.26300 0.68500 3.86300
C 0.34500 0.11000 5.29900
C 0.12400 0.39700 6.78700
H 1.16800 0.03300 7.73300
N -0.18500 1.96100 -0.15200
C -0.70300 2.80000 0.77700
C -0.62000 4.15600 0.19300
C -0.18700 4.01500 -1.22500
C -0.21400 2.58300 -1.38000
C -0.88700 5.40600 0.97400
C 0.18100 5.01300 -2.27700
O 0.30300 4.69000 -3.50800
C 0.31000 6.41400 -1.83700
N -0.26500 -0.41300 -2.02900
C -0.27900 0.56900 -2.93700
C -0.19600 0.02400 -4.33200
C 0.12400 -1.53300 -4.18000
C 0.08600 -1.63200 -2.63500
C -1.45100 0.20500 -5.19700
C 1.37300 -2.07000 -4.92300
C 2.62600 -1.49000 -4.30600
N 0.15000 -2.14400 0.30300
C 0.17300 -3.13600 -0.68800
C 0.17300 -4.43800 0.00400
C 0.13300 -4.11100 1.35800
C 0.08300 -2.69500 1.50200
C 0.14900 -5.71500 -0.62300
C 0.09600 -4.62900 2.71600
O 0.20800 -5.74700 3.22100
C -0.25500 -3.42800 3.70100
C 0.71700 -3.48200 4.84800
O 1.93100 -3.25500 4.66900
O 0.03800 -3.55600 6.00300
C 0.94300 -3.58300 7.18300
H -1.85900 3.22000 2.49700
H -0.21800 2.45300 -3.47400
H 0.27600 -3.74700 -2.60500
H -1.55400 -0.94900 5.13200
H -1.58500 1.83100 4.66500
H -3.48400 -0.37700 3.96900
H -3.51100 1.02700 2.85800
H -3.85200 1.30100 4.54300
H 0.66900 1.09600 4.96600
H 1.13000 -0.63900 5.18900
H -0.84400 0.02600 7.12500
H 0.06200 1.47700 6.92100
H -1.34400 5.18600 1.93800
H -1.65100 5.96300 0.43200
H 0.00700 6.02000 1.08400
H -0.63500 6.74400 -1.40500
H 0.66500 6.97000 -2.70400
H 1.04800 6.46600 -1.03600
H 0.60800 0.50100 -4.89100
H -0.69200 -2.15600 -4.54700
H -1.26700 0.74000 -6.12900
H -2.20400 0.71400 -4.59600
H -1.96700 -0.72000 -5.45300
H 1.35600 -1.75900 -5.96700
H 1.45200 -3.15700 -4.90200
H 2.71400 -0.52200 -4.79800
H 3.48700 -2.12100 -4.52900
H 2.49500 -1.30300 -3.24000
H 0.86700 -6.33300 -0.08400
H 0.40400 -5.64200 -1.68000
H -0.89100 -5.99900 -0.46300
H -1.28300 -3.58100 4.02800
H 0.69800 -4.47800 7.75500
H 0.83300 -2.61900 7.68000
H 2.00000 -3.75400 6.97600
Mg 31.54017 2.84366 2.40087
C 31.80739 0.66405 5.23935
C 30.73292 5.33933 4.58138
C 30.85823 4.67312 -0.10022
C 31.23966 -0.00540 0.41637
N 31.33026 2.87444 4.60252
C 31.51645 2.00126 5.58090
C 31.46254 2.61200 7.00696
C 30.56950 3.90618 6.68069
C 30.92085 4.07977 5.20452
C 29.07563 3.64944 6.78912
C 32.88289 3.01356 7.53930
C 32.94364 3.32769 9.03576
H 34.14539 2.95500 9.77696
N 31.37186 4.81609 2.26029
C 31.05971 5.67874 3.25009
C 31.04277 7.01290 2.63051
C 31.20837 6.84962 1.16060
C 31.13001 5.40718 1.04513
C 30.96048 8.28053 3.43037
C 31.39233 7.83024 0.04224
O 31.27675 7.48082 -1.18551
C 31.61935 9.23044 0.42877
N 30.89970 2.41156 0.47074
C 30.72874 3.38948 -0.43612
C 30.53429 2.82082 -1.82147
C 30.85274 1.25885 -1.69332
C 31.10028 1.17511 -0.17111
C 29.14405 3.00838 -2.42846
C 31.93024 0.67944 -2.65038
C 33.28839 1.24375 -2.30057
N 31.70645 0.71118 2.70574
C 31.51741 -0.30528 1.74389
C 31.62265 -1.59835 2.45052
C 31.84449 -1.24131 3.78910
C 31.85520 0.17445 3.91166
C 31.46697 -2.88412 1.86003
C 32.06145 -1.74013 5.12806
O 32.23710 -2.85289 5.62268
C 31.92104 -0.52880 6.14754
C 33.08922 -0.58023 7.09371
O 34.24689 -0.39397 6.67932
O 32.63072 -0.62382 8.35793
C 33.75233 -0.66474 9.33370
H 30.25063 6.13359 5.15184
H 30.72545 5.25695 -1.01400
H 31.25516 -0.94017 -0.14811
H 30.96684 1.99510 7.74688
H 30.89875 4.76827 7.25494
H 28.85725 2.60465 6.95304
H 28.65113 3.98202 5.85091
H 28.63831 4.28887 7.56127
H 33.15429 3.99521 7.13009
H 33.60711 2.25977 7.29861
H 32.04497 2.98825 9.56501
H 32.93585 4.41292 9.16313
H 30.68181 8.08122 4.47249
H 30.11973 8.85729 3.02993
H 31.86838 8.88328 3.35904
H 30.78095 9.58063 1.02620
H 31.81671 9.76271 -0.50376
H 32.50518 9.27658 1.07203
H 31.22989 3.26489 -2.52293
H 29.96511 0.64361 -1.90166
H 29.15982 3.53652 -3.40051
H 28.52955 3.54209 -1.71565
H 28.57842 2.09053 -2.57950
H 31.72428 0.98195 -3.68004
H 31.98185 -0.40415 -2.63728
H 33.29541 2.20819 -2.81719
H 34.07964 0.59340 -2.66801
H 33.36605 1.44495 -1.22580
H 32.25342 -3.50876 2.26229
H 31.51598 -2.83161 0.77439
H 30.46492 -3.14114 2.21374
H 30.96871 -0.64579 6.66615
H 33.59869 -1.54882 9.96019
H 33.74403 0.31889 9.83982
H 34.74723 -0.85043 8.94621
158

Mg 0.00000 0.00000 0.00000
C -0.21700 -2.21800 2.80100
C -1.25500 2.44200 2.02600
C -0.24500 1.85000 -2.56400
C 0.14600 -2.82400 -2.03700
N -0.61700 -0.00900 2.12600
C -0.59400 -0.90800 3.10500
C -0.93600 -0.30900 4.50200
C -1.77300 0.96400 4.03200
C -1.15500 1.16800 2.66000
C -3.26300 0.68500 3.86300
C 0.34500 0.11000 5.29900
C 0.12400 0.39700 6.78700
H 1.16800 0.03300 7.73300
N -0.18500 1.96100 -0.15200
C -0.70300 2.80000 0.77700
C -0.62000 4.15600 0.19300
C -0.18700 4.01500 -1.22500
C -0.21400 2.58300 -1.38000
C -0.88700 5.40600 0.97400
C 0.18100 5.01300 -2.27700
O 0.30300 4.69000 -3.50800
C 0.31000 6.41400 -1.83700
N -0.26500 -0.41300 -2.02900
C -0.27900 0.56900 -2.93700
C -0.19600 0.02400 -4.33200
C 0.12400 -1.53300 -4.18000
C 0.08600 -1.63200 -2.63500
C -1.45100 0.20500 -5.19700
C 1.37300 -2.07000 -4.92300
C 2.62600 -1.49000 -4.30600
N 0.15000 -2.14400 0.30300
C 0.17300 -3.13600 -0.68800
C 0.17300 -4.43800 0.00400
C 0.13300 -4.11100 1.35800
C 0.08300 -2.69500 1.50200
C 0.14900 -5.71500 -0.62300
C 0.09600 -4.62900 2.71600
O 0.20800 -5.74700 3.22100
C -0.25500 -3.42800 3.70100
C 0.71700 -3.48200 4.84800
O 1.93100 -3.25500 4.66900
O 0.03800 -3.55600 6.00300
C 0.94300 -3.58300 7.18300
H -1.85900 3.22000 2.49700
H -0.21800 2.45300 -3.47400
H 0.27600 -3.74700 -2.60500
H -1.55400 -0.94900 5.13200
H -1.58500 1.83100 4.66500
H -3.48400 -0.37700 3.96900
H -3.51100 1.02700 2.85800
H -3.85200 1.30100 4.54300
H 0.66900 1.09600 4.96600
H 1.13000 -0.63900 5.18900
H -0.84400 0.02600 7.12500
H 0.06200 1.47700 6.92100
H -1.34400 5.18600 1.93800
H -1.65100 5.96300 0.43200
H 0.00700 6.02000 1.08400
H -0.63500 6.74400 -1.40500
H 0.66500 6.97000 -2.70400
H 1.04800 6.46600 -1.03600
H 0.60800 0.50100 -4.89100
H -0.69200 -2.15600 -4.54700
H -1.26700 0.74000 -6.12900
H -2.20400 0.71400 -4.59600
H -1.96700 -0.72000 -5.45300
H 1.35600 -1.75900 -5.96700
H 1.45200 -3.15700 -4.90200
H 2.71400 -0.52200 -4.79800
H 3.48700 -2.12100 -4.52900
H 2.49500 -1.30300 -3.24000
H 0.86700 -6.33300 -0.08400
H 0.40400 -5.64200 -1.68000
H -0.89100 -5.99900 -0.46300
H -1.28300 -3.58100 4.02800
H 0.69800 -4.47800 7.75500
H 0.83300 -2.61900 7.68000
H 2.00000 -3.75400 6.97600
Mg 31.54054 2.84363 2.40036
C 31.97079 0.67614 5.22806
C 30.88892 5.35566 4.61389
C 30.71521 4.66560 -0.06271
C 31.09652 -0.01292 0.45391
N 31.46962 2.88672 4.61064
C 31.71100 2.01705 5.58005
C 31.75098 2.63515 7.00340
C 30.84802 3.93404 6.72696
C 31.10707 4.09787 5.23072
C 29.36220 3.68848 6.93038
C 33.20467 3.02918 7.44332
C 33.36150 3.35021 8.93130
H 34.60489 2.97261 9.59754
N 31.37714 4.81650 2.26009
C 31.13370 5.68619 3.26290
C 31.08693 7.01739 2.63849
C 31.15870 6.84572 1.16198
C 31.06343 5.40333 1.05937
C 31.06370 8.28948 3.43515
C 31.27868 7.81950 0.02904
O 31.08379 7.46489 -1.18714
C 31.53906 9.21993 0.39306
N 30.77710 2.40664 0.51660
C 30.55614 3.38129 -0.38294
C 30.27114 2.80723 -1.75028
C 30.58639 1.24368 -1.63404
C 30.92853 1.16565 -0.12996
C 28.84681 3.00171 -2.26974
C 31.59764 0.65192 -2.65377
C 32.97890 1.20825 -2.39300
N 31.71114 0.71155 2.70557
C 31.45511 -0.30825 1.76295
C 31.59576 -1.59855 2.46848
C 31.90371 -1.23653 3.78855
C 31.93173 0.17969 3.90263
C 31.39452 -2.88606 1.89581
C 32.20099 -1.73031 5.11388
O 32.39981 -2.84185 5.60244
C 32.13318 -0.51302 6.13368
C 33.35814 -0.56813 7.00487
O 34.48872 -0.39217 6.51759
O 32.97971 -0.60225 8.29560
C 34.16013 -0.64637 9.19920
H 30.44885 6.15613 5.20927
H 30.52924 5.24588 -0.96945
H 31.07016 -0.95054 -0.10542
H 31.29857 2.02544 7.77629
H 31.21857 4.79657 7.27477
H 29.14745 2.64609 7.11327
H 28.88185 4.01947 6.01892
H 28.97864 4.33480 7.72504
H 33.45649 4.00685 7.01262
H 33.90719 2.26908 7.16164
H 32.49557 3.01978 9.51776
H 33.36910 4.43608 9.05310
H 30.84973 8.09729 4.49377
H 30.20338 8.87024 3.08524
H 31.96940 8.88539 3.30371
H 30.74227 9.57901 1.04009
H 31.68104 9.74619 -0.55286
H 32.46387 9.26292 0.97915
H 30.92429 3.24289 -2.49641
H 29.68324 0.63377 -1.78292
H 28.80505 3.52495 -3.24367
H 28.28197 3.54328 -1.52260
H 28.26657 2.08719 -2.38004
H 31.32943 0.95084 -3.67007
H 31.64259 -0.43193 -2.63815
H 32.95999 2.17007 -2.91419
H 33.74105 0.55048 -2.80592
H 33.12532 1.41417 -1.32631
H 32.20044 -3.51431 2.25121
H 31.37556 -2.83924 0.80897
H 30.41496 -3.13420 2.31313
H 31.21455 -0.62068 6.71171
H 34.04015 -1.52625 9.83882
H 34.19035 0.33976 9.69957
H 35.12742 -0.84104 8.75098
158

Mg 0.00000 0.00000 0.00000
C -0.21700 -2.21800 2.80100
C -1.25500 2.44200 2.02600
C -0.24500 1.85000 -2.56400
C 0.14600 -2.82400 -2.03700
N -0.61700 -0.00900 2.12600
C -0.59400 -0.90800 3.10500
C -0.93600 -0.30900 4.50200
C -1.77300 0.96400 4.03200
C -1.15500 1.16800 2.66000
C -3.26300 0.68500 3.86300
C 0.34500 0.11000 5.29900
C 0.12400 0.39700 6.78700
H 1.16800 0.03300 7.73300
N -0.18500 1.96100 -0.15200
C -0.70300 2.80000 0.77700
C -0.62000 4.15600 0.19300
C -0.18700 4.01500 -1.22500
C -0.21400 2.58300 -1.38000
C -0.88700 5.40600 0.97400
C 0.18100 5.01300 -2.27700
O 0.30300 4.69000 -3.50800
C 0.31000 6.41400 -1.83700
N -0.26500 -0.41300 -2.02900
C -0.27900 0.56900 -2.93700
C -0.19600 0.02400 -4.33200
C 0.12400 -1.53300 -4.18000
C 0.08600 -1.63200 -2.63500
C -1.45100 0.20500 -5.19700
C 1.37300 -2.07000 -4.92300
C 2.62600 -1.49000 -4.30600
N 0.15000 -2.14400 0.30300
C 0.17300 -3.13600 -0.68800
C 0.17300 -4.43800 0.00400
C 0.13300 -4.11100 1.35800
C 0.08300 -2.69500 1.50200
C 0.14900 -5.71500 -0.62300
C 0.09600 -4.62900 2.71600
O 0.20800 -5.74700 3.22100
C -0.25500 -3.42800 3.70100
C 0.71700 -3.48200 4.84800
O 1.93100 -3.25500 4.66900
O 0.03800 -3.55600 6.00300
C 0.94300 -3.58300 7.18300
H -1.85900 3.22000 2.49700
H -0.21800 2.45300 -3.47400
H 0.27600 -3.74700 -2.60500
H -1.55400 -0.94900 5.13200
H -1.58500 1.83100 4.66500
H -3.48400 -0.37700 3.96900
H -3.51100 1.02700 2.85800
H -3.85200 1.30100 4.54300
H 0.66900 1.09600 4.96600
H 1.13000 -0.63900 5.18900
H -0.84400 0.02600 7.12500
H 0.06200 1.47700 6.92100
H -1.34400 5.18600 1.93800
H -1.65100 5.96300 0.43200
H 0.00700 6.02000 1.08400
H -0.63500 6.74400 -1.40500
H 0.66500 6.97000 -2.70400
H 1.04800 6.46600 -1.03600
H 0.60800 0.50100 -4.89100
H -0.69200 -2.15600 -4.54700
H -1.26700 0.74000 -6.12900
H -2.20400 0.71400 -4.59600
H -1.96700 -0.72000 -5.45300
H 1.35600 -1.75900 -5.96700
H 1.45200 -3.15700 -4.90200
H 2.71400 -0.52200 -4.79800
H 3.48700 -2.12100 -4.52900
H 2.49500 -1.30300 -3.24000
H 0.86700 -6.33300 -0.08400
H 0.40400 -5.64200 -1.68000
H -0.89100 -5.99900 -0.46300
H -1.28300 -3.58100 4.02800
H 0.69800 -4.47800 7.75500
H 0.83300 -2.61900 7.68000
H 2.00000 -3.75400 6.97600
Mg 31.54087 2.84360 2.39982
C 32.13324 0.68700 5.20646
C 31.04677 5.37104 4.63645
C 30.57479 4.65929 -0.01625
C 30.95598 -0.01924 0.50041
N 31.60931 2.89804 4.60994
C 31.90521 2.03144 5.56690
C 32.03877 2.65622 6.98160
C 31.12908 3.96014 6.75548
C 31.29469 4.11477 5.24507
C 29.65735 3.72617 7.05314
C 33.51989 3.04204 7.32723
C 33.77210 3.36924 8.80069
H 35.05231 2.98606 9.38951
N 31.38241 4.81687 2.25954
C 31.20839 5.69319 3.27101
C 31.13153 7.02160 2.64366
C 31.10919 6.84218 1.16649
C 30.99785 5.40002 1.07778
C 31.16707 8.29773 3.43339
C 31.16435 7.80951 0.02307
O 30.89100 7.45033 -1.17656
C 31.45662 9.20981 0.36252
N 30.65759 2.40282 0.57010
C 30.38717 3.37459 -0.31898
C 30.01290 2.79587 -1.66263
C 30.32418 1.23071 -1.55806
C 30.75964 1.15762 -0.07805
C 28.56009 2.99795 -2.09263
C 31.26530 0.62675 -2.63613
C 32.66397 1.17450 -2.46560
N 31.71581 0.71188 2.70511
C 31.39411 -0.31069 1.78590
C 31.57004 -1.59848 2.48809
C 31.96280 -1.23219 3.78426
C 32.00758 0.18435 3.88877
C 31.32446 -2.88732 1.93608
C 32.33943 -1.72156 5.09092
O 32.56099 -2.83208 5.57195
C 32.34413 -0.49882 6.10644
C 33.62102 -0.55839 6.89924
O 34.71990 -0.39288 6.34097
O 33.32424 -0.58347 8.21136
C 34.55878 -0.63157 9.03925
H 30.65044 6.17754 5.25401
H 30.33615 5.23642 -0.91260
H 30.88813 -0.95937 -0.05114
H 31.63170 2.05355 7.78463
H 31.53919 4.82268 7.27432
H 29.44743 2.68625 7.25473
H 29.12292 4.05610 6.17190
H 29.32889 4.37910 7.86686
H 33.75078 4.01576 6.87635
H 34.19812 2.27557 7.00605
H 32.94251 3.04787 9.44214
H 33.79473 4.45562 8.91596
H 31.01875 8.11226 4.50437
H 30.29043 8.88287 3.13511
H 32.06675 8.88651 3.24214
H 30.70453 9.57774 1.05639
H 31.54244 9.73041 -0.59325
H 32.41670 9.24909 0.88912
H 30.62081 3.22320 -2.45064
H 29.40934 0.62652 -1.64666
H 28.46077 3.51668 -3.06480
H 28.04703 3.54718 -1.31440
H 27.96786 2.08705 -2.16137
H 30.93578 0.92258 -3.63516
H 31.30377 -0.45730 -2.61756
H 32.61889 2.13386 -2.98971
H 33.39417 0.50930 -2.92206
H 32.87853 1.38460 -1.41134
H 32.14682 -3.51954 2.24351
H 31.23754 -2.84569 0.85235
H 30.37140 -3.12642 2.41543
H 31.46294 -0.59709 6.74159
H 34.47326 -1.50742 9.68984
H 34.62710 0.35677 9.53146
H 35.49464 -0.83533 8.53221
158

Mg 0.00000 0.00000 0.00000
C -0.21700 -2.21800 2.80100
C -1.25500 2.44200 2.02600
C -0.24500 1.85000 -2.56400
C 0.14600 -2.82400 -2.03700
N -0.61700 -0.00900 2.12600
C -0.59400 -0.90800 3.10500
C -0.93600 -0.30900 4.50200
C -1.77300 0.96400 4.03200
C -1.15500 1.16800 2.66000
C -3.26300 0.68500 3.86300
C 0.34500 0.11000 5.29900
C 0.12400 0.39700 6.78700
H 1.16800 0.03300 7.73300
N -0.18500 1.96100 -0.15200
C -0.70300 2.80000 0.77700
C -0.62000 4.15600 0.19300
C -0.18700 4.01500 -1.22500
C -0.21400 2.58300 -1.38000
C -0.88700 5.40600 0.97400
C 0.18100 5.01300 -2.27700
O 0.30300 4.69000 -3.50800
C 0.31000 6.41400 -1.83700
N -0.26500 -0.41300 -2.02900
C -0.27900 0.56900 -2.93700
C -0.19600 0.02400 -4.33200
C 0.12400 -1.53300 -4.18000
C 0.08600 -1.63200 -2.63500
C -1.45100 0.20500 -5.19700
C 1.37300 -2.07000 -4.92300
C 2.62600 -1.49000 -4.30600
N 0.15000 -2.14400 0.30300
C 0.17300 -3.13600 -0.68800
C 0.17300 -4.43800 0.00400
C 0.13300 -4.11100 1.35800
C 0.08300 -2.69500 1.50200
C 0.14900 -5.71500 -0.62300
C 0.09600 -4.62900 2.71600
O 0.20800 -5.74700 3.22100
C -0.25500 -3.42800 3.70100
C 0.71700 -3.48200 4.84800
O 1.93100 -3.25500 4.66900
O 0.03800 -3.55600 6.00300
C 0.94300 -3.58300 7.18300
H -1.85900 3.22000 2.49700
H -0.21800 2.45300 -3.47400
H 0.27600 -3.74700 -2.60500
H -1.55400 -0.94900 5.13200
H -1.58500 1.83100 4.66500
H -3.48400 -0.37700 3.96900
H -3.51100 1.02700 2.85800
H -3.85200 1.30100 4.54300
H 0.66900 1.09600 4.96600
H 1.13000 -0.63900 5.18900
H -0.84400 0.02600 7.12500
H 0.06200 1.47700 6.92100
H -1.34400 5.18600 1.93800
H -1.65100 5.96300 0.43200
H 0.00700 6.02000 1.08400
H -0.63500 6.74400 -1.40500
H 0.66500 6.97000 -2.70400
H 1.04800 6.46600 -1.03600
H 0.60800 0.50100 -4.89100
H -0.69200 -2.15600 -4.54700
H -1.26700 0.74000 -6.12900
H -2.20400 0.71400 -4.59600
H -1.96700 -0.72000 -5.45300
H 1.35600 -1.75900 -5.96700
H 1.45200 -3.15700 -4.90200
H 2.71400 -0.52200 -4.79800
H 3.48700 -2.12100 -4.52900
H 2.49500 -1.30300 -3.24000
H 0.86700 -6.33300 -0.08400
H 0.40400 -5.64200 -1.68000
H -0.89100 -5.99900 -0.46300
H -1.28300 -3.58100 4.02800
H 0.69800 -4.47800 7.75500
H 0.83300 -2.61900 7.68000
H 2.00000 -3.75400 6.97600
Mg 31.54117 2.84356 2.39926
C 32.29408 0.69660 5.17464
C 31.20582 5.38541 4.64897
C 30.43752 4.65421 0.03898
C 30.81859 -0.02432 0.55568
N 31.74874 2.90836 4.60039
C 32.09830 2.04438 5.54150
C 32.32476 2.67513 6.94166
C 31.41155 3.98437 6.76616
C 31.48295 4.13041 5.24752
C 29.95988 3.76237 7.15692
C 33.82726 3.05208 7.19150
C 34.17380 3.38470 8.64444
H 35.48585 2.99531 9.15372
N 31.38763 4.81720 2.25867
C 31.28350 5.69969 3.27437
C 31.17640 7.02552 2.64599
C 31.06004 6.83901 1.17413
C 30.93353 5.39727 1.10030
C 31.27018 8.30522 3.42510
C 31.04981 7.80030 0.02434
O 30.69917 7.43720 -1.15381
C 31.37235 9.20014 0.33727
N 30.54166 2.40011 0.63102
C 30.22252 3.36941 -0.24450
C 29.76061 2.78679 -1.55888
C 30.06719 1.21997 -1.46570
C 30.59430 1.15105 -0.01559
C 28.28505 2.99709 -1.89784
C 30.93456 0.60404 -2.59750
C 32.34488 1.14264 -2.51811
N 31.72044 0.71217 2.70436
C 31.33466 -0.31257 1.81265
C 31.54561 -1.59812 2.50927
C 32.02154 -1.22828 3.77623
C 32.08243 0.18839 3.87016
C 31.25705 -2.88787 1.98068
C 32.47620 -1.71391 5.05926
O 32.72000 -2.82360 5.53135
C 32.55304 -0.48627 6.06593
C 33.87680 -0.55103 6.77726
O 34.93952 -0.39610 6.15019
O 33.66290 -0.56756 8.10555
C 34.94669 -0.62039 8.85450
H 30.85459 6.19773 5.28588
H 30.14695 5.22862 -0.84369
H 30.70982 -0.96665 0.01451
H 31.96487 2.07932 7.77188
H 31.85931 4.84651 7.25359
H 29.75598 2.72497 7.37686
H 29.37338 4.09176 6.30924
H 29.68766 4.42160 7.98616
H 34.03598 4.02190 6.72180
H 34.47874 2.27923 6.83246
H 33.38400 3.07241 9.33844
H 34.21102 4.47145 8.75225
H 31.18821 8.12607 4.50426
H 30.38053 8.89513 3.17934
H 32.16004 8.88663 3.17456