%nproc=24
%mem=175gb
#p cam-b3lyp/Def2SVP td=(nstates=5)

TDDFT excited states in gaussian

0 1
Mg 31.54055 2.83671 2.38869
C 31.25926 5.58665 0.10008
C 31.04631 0.76381 -0.27466
C 31.33372 0.42025 4.43451
C 30.87307 5.09044 4.96179
N 31.20832 3.24210 0.23984
C 31.18290 4.32398 -0.52385
C 31.15004 4.03439 -2.04852
C 30.51402 2.56064 -1.99971
C 30.97727 2.14052 -0.60631
C 28.99448 2.56003 -2.01823
C 32.58403 4.02035 -2.68530
C 32.60870 4.05130 -4.21507
H 33.68209 4.78565 -4.87917
N 31.72278 0.88302 2.09127
C 31.50532 0.21122 0.94119
C 31.75510 -1.20540 1.24935
C 31.97738 -1.33446 2.71518
C 31.65904 0.01093 3.14953
C 31.84465 -2.26508 0.18988
C 32.39359 -2.48255 3.58400
O 32.29295 -2.43183 4.86076
C 32.83469 -3.70229 2.89178
N 30.95139 2.72093 4.37912
C 31.00555 1.55664 5.04953
C 30.79902 1.76965 6.53019
C 30.83578 3.35390 6.74557
C 30.97412 3.80604 5.27525
C 29.50043 1.20771 7.10835
C 31.85258 3.89938 7.78540
C 33.26429 3.67866 7.29169
N 31.31901 4.97892 2.56152
C 31.01552 5.71366 3.72863
C 30.85445 7.12551 3.32470
C 31.05429 7.11051 1.93605
C 31.30110 5.78001 1.50208
C 30.51532 8.20452 4.18890
C 31.10205 7.91613 0.73714
O 31.05386 9.12213 0.49843
C 31.11169 6.94713 -0.52276
C 32.19515 7.41111 -1.45731
O 33.39019 7.35281 -1.11808
O 31.66151 7.64154 -2.67078
C 32.69923 8.09336 -3.63557
H 30.67475 0.03678 -0.99734
H 31.35803 -0.36039 5.19838
H 30.76111 5.86914 5.71926
H 30.51242 4.69571 -2.62287
H 30.95189 1.91617 -2.75753
H 28.59024 3.55846 -1.94168
H 28.69018 1.96250 -1.16888
H 28.62850 2.03307 -2.90407
H 33.04416 3.03942 -2.50978
H 33.18079 4.82314 -2.29796
H 31.63512 4.32815 -4.63749
H 32.78016 3.03569 -4.57998
H 31.47428 -1.90037 -0.77615
H 31.14102 -3.05676 0.46920
H 32.84532 -2.69461 0.10727
H 32.03498 -4.06176 2.24858
H 33.17587 -4.37773 3.67870
H 33.67535 -3.44812 2.23657
H 31.60117 1.31865 7.10137
H 29.86953 3.73902 7.10318
H 29.66470 0.49488 7.93839
H 28.94558 0.73741 6.30742
H 28.79533 1.95383 7.47077
H 31.76343 3.35060 8.72617
H 31.71611 4.95150 8.01213
H 33.46789 2.64334 7.58108
H 33.95231 4.36708 7.77826
H 33.31126 3.73047 6.19772
H 31.15721 9.03273 3.91954
H 30.63720 7.92980 5.23458
H 29.46473 8.34587 3.92139
H 30.12426 6.99850 -0.98311
H 32.35873 9.04862 -4.04694
H 32.83016 7.25653 -4.34714
H 33.66863 8.36836 -3.23671

