%nproc=24
%mem=175gb
#p cam-b3lyp/Def2SVP td=(nstates=5)

TDDFT excited states in gaussian

0 1
Mg 0.00000 0.00000 0.00000
C -0.21700 -2.21800 2.80100
C -1.25500 2.44200 2.02600
C -0.24500 1.85000 -2.56400
C 0.14600 -2.82400 -2.03700
N -0.61700 -0.00900 2.12600
C -0.59400 -0.90800 3.10500
C -0.93600 -0.30900 4.50200
C -1.77300 0.96400 4.03200
C -1.15500 1.16800 2.66000
C -3.26300 0.68500 3.86300
C 0.34500 0.11000 5.29900
C 0.12400 0.39700 6.78700
H 1.16800 0.03300 7.73300
N -0.18500 1.96100 -0.15200
C -0.70300 2.80000 0.77700
C -0.62000 4.15600 0.19300
C -0.18700 4.01500 -1.22500
C -0.21400 2.58300 -1.38000
C -0.88700 5.40600 0.97400
C 0.18100 5.01300 -2.27700
O 0.30300 4.69000 -3.50800
C 0.31000 6.41400 -1.83700
N -0.26500 -0.41300 -2.02900
C -0.27900 0.56900 -2.93700
C -0.19600 0.02400 -4.33200
C 0.12400 -1.53300 -4.18000
C 0.08600 -1.63200 -2.63500
C -1.45100 0.20500 -5.19700
C 1.37300 -2.07000 -4.92300
C 2.62600 -1.49000 -4.30600
N 0.15000 -2.14400 0.30300
C 0.17300 -3.13600 -0.68800
C 0.17300 -4.43800 0.00400
C 0.13300 -4.11100 1.35800
C 0.08300 -2.69500 1.50200
C 0.14900 -5.71500 -0.62300
C 0.09600 -4.62900 2.71600
O 0.20800 -5.74700 3.22100
C -0.25500 -3.42800 3.70100
C 0.71700 -3.48200 4.84800
O 1.93100 -3.25500 4.66900
O 0.03800 -3.55600 6.00300
C 0.94300 -3.58300 7.18300
H -1.85900 3.22000 2.49700
H -0.21800 2.45300 -3.47400
H 0.27600 -3.74700 -2.60500
H -1.55400 -0.94900 5.13200
H -1.58500 1.83100 4.66500
H -3.48400 -0.37700 3.96900
H -3.51100 1.02700 2.85800
H -3.85200 1.30100 4.54300
H 0.66900 1.09600 4.96600
H 1.13000 -0.63900 5.18900
H -0.84400 0.02600 7.12500
H 0.06200 1.47700 6.92100
H -1.34400 5.18600 1.93800
H -1.65100 5.96300 0.43200
H 0.00700 6.02000 1.08400
H -0.63500 6.74400 -1.40500
H 0.66500 6.97000 -2.70400
H 1.04800 6.46600 -1.03600
H 0.60800 0.50100 -4.89100
H -0.69200 -2.15600 -4.54700
H -1.26700 0.74000 -6.12900
H -2.20400 0.71400 -4.59600
H -1.96700 -0.72000 -5.45300
H 1.35600 -1.75900 -5.96700
H 1.45200 -3.15700 -4.90200
H 2.71400 -0.52200 -4.79800
H 3.48700 -2.12100 -4.52900
H 2.49500 -1.30300 -3.24000
H 0.86700 -6.33300 -0.08400
H 0.40400 -5.64200 -1.68000
H -0.89100 -5.99900 -0.46300
H -1.28300 -3.58100 4.02800
H 0.69800 -4.47800 7.75500
H 0.83300 -2.61900 7.68000
H 2.00000 -3.75400 6.97600
Mg 13.14225 1.18772 1.00671
C 12.15038 -1.12574 3.56467
C 11.22991 3.52696 2.58959
C 13.63149 3.11600 -1.46510
C 14.01392 -1.56243 -0.94844
N 11.89872 1.09259 2.83341
C 11.64687 0.17763 3.75741
C 10.87567 0.70898 4.99534
C 10.16917 1.97877 4.31171
C 11.17481 2.24544 3.19356
C 8.82671 1.65222 3.67884
C 11.83671 1.14285 6.15732
C 11.15080 1.37951 7.50464
H 11.86943 1.02040 8.72410
N 12.93736 3.15569 0.85286
C 12.13393 3.95031 1.59066
C 12.33213 5.31347 1.07426
C 13.19369 5.23569 -0.13668
C 13.27222 3.79937 -0.31250
C 11.79531 6.53215 1.76714
C 13.82975 6.28128 -1.00176
O 14.34082 5.99278 -2.14124
C 13.75367 7.66752 -0.51798
N 13.53698 0.83127 -1.00314
C 13.76114 1.84758 -1.85448
C 14.29287 1.34530 -3.17560
C 14.60900 -0.20602 -2.94965
C 14.09936 -0.35957 -1.49979
C 13.35663 1.50443 -4.37332
C 16.04815 -0.68668 -3.28206
C 17.03217 -0.08346 -2.30573
N 13.27659 -0.94873 1.29930
C 13.63797 -1.91998 0.34006
C 13.47256 -3.24294 0.97635
C 13.00069 -2.94811 2.26433
C 12.86128 -1.54171 2.41301
C 13.70177 -4.50111 0.35139
C 12.57871 -3.50738 3.52839
O 12.56532 -4.63616 4.01770
C 11.88910 -2.35903 4.38403
C 12.45947 -2.40995 5.77493
O 13.65936 -2.15205 5.97584
O 11.45370 -2.54033 6.65911
C 11.96845 -2.58435 8.05372
H 10.48350 4.26823 2.87644
H 13.91738 3.74117 -2.31415
H 14.35808 -2.46440 -1.45900
H 10.12570 0.03284 5.38795
H 10.12648 2.82264 4.99539
H 8.62327 0.59174 3.69017
H 8.88514 2.01540 2.66113
H 8.03256 2.23028 4.15999
H 12.20841 2.15564 5.95524
H 12.63368 0.43493 6.27697
H 10.13198 0.97390 7.52538
H 11.01387 2.45511 7.64013
H 11.06345 6.26599 2.53975
H 11.21573 7.09240 1.02547
H 12.58544 7.17656 2.15843
H 12.71103 7.94892 -0.39081
H 14.34062 8.25654 -1.22539
H 14.21645 7.71779 0.47394
H 15.21018 1.85563 -3.44246
H 13.97179 -0.84719 -3.57630
H 13.80401 2.08356 -5.20310
H 12.44274 1.97249 -4.03236
H 12.99275 0.57226 -4.80209
H 16.34358 -0.33919 -4.27510
H 16.15579 -1.76618 -3.27340
H 17.22533 0.90642 -2.72990
H 17.94211 -0.67855 -2.26201
H 16.57085 0.06364 -1.32227
H 14.23603 -5.11158 1.06721
H 14.26300 -4.38904 -0.57394
H 12.67166 -4.81966 0.17068
H 10.81434 -2.54447 4.37525
H 11.58914 -3.50623 8.50533
H 11.65553 -1.63023 8.51792
H 13.03665 -2.70599 8.19008

