%nproc=24
%mem=175gb
#p cam-b3lyp/Def2SVP td=(nstates=5)

TDDFT excited states in gaussian

0 1
Mg 0.00000 0.00000 0.00000
C -0.21700 -2.21800 2.80100
C -1.25500 2.44200 2.02600
C -0.24500 1.85000 -2.56400
C 0.14600 -2.82400 -2.03700
N -0.61700 -0.00900 2.12600
C -0.59400 -0.90800 3.10500
C -0.93600 -0.30900 4.50200
C -1.77300 0.96400 4.03200
C -1.15500 1.16800 2.66000
C -3.26300 0.68500 3.86300
C 0.34500 0.11000 5.29900
C 0.12400 0.39700 6.78700
H 1.16800 0.03300 7.73300
N -0.18500 1.96100 -0.15200
C -0.70300 2.80000 0.77700
C -0.62000 4.15600 0.19300
C -0.18700 4.01500 -1.22500
C -0.21400 2.58300 -1.38000
C -0.88700 5.40600 0.97400
C 0.18100 5.01300 -2.27700
O 0.30300 4.69000 -3.50800
C 0.31000 6.41400 -1.83700
N -0.26500 -0.41300 -2.02900
C -0.27900 0.56900 -2.93700
C -0.19600 0.02400 -4.33200
C 0.12400 -1.53300 -4.18000
C 0.08600 -1.63200 -2.63500
C -1.45100 0.20500 -5.19700
C 1.37300 -2.07000 -4.92300
C 2.62600 -1.49000 -4.30600
N 0.15000 -2.14400 0.30300
C 0.17300 -3.13600 -0.68800
C 0.17300 -4.43800 0.00400
C 0.13300 -4.11100 1.35800
C 0.08300 -2.69500 1.50200
C 0.14900 -5.71500 -0.62300
C 0.09600 -4.62900 2.71600
O 0.20800 -5.74700 3.22100
C -0.25500 -3.42800 3.70100
C 0.71700 -3.48200 4.84800
O 1.93100 -3.25500 4.66900
O 0.03800 -3.55600 6.00300
C 0.94300 -3.58300 7.18300
H -1.85900 3.22000 2.49700
H -0.21800 2.45300 -3.47400
H 0.27600 -3.74700 -2.60500
H -1.55400 -0.94900 5.13200
H -1.58500 1.83100 4.66500
H -3.48400 -0.37700 3.96900
H -3.51100 1.02700 2.85800
H -3.85200 1.30100 4.54300
H 0.66900 1.09600 4.96600
H 1.13000 -0.63900 5.18900
H -0.84400 0.02600 7.12500
H 0.06200 1.47700 6.92100
H -1.34400 5.18600 1.93800
H -1.65100 5.96300 0.43200
H 0.00700 6.02000 1.08400
H -0.63500 6.74400 -1.40500
H 0.66500 6.97000 -2.70400
H 1.04800 6.46600 -1.03600
H 0.60800 0.50100 -4.89100
H -0.69200 -2.15600 -4.54700
H -1.26700 0.74000 -6.12900
H -2.20400 0.71400 -4.59600
H -1.96700 -0.72000 -5.45300
H 1.35600 -1.75900 -5.96700
H 1.45200 -3.15700 -4.90200
H 2.71400 -0.52200 -4.79800
H 3.48700 -2.12100 -4.52900
H 2.49500 -1.30300 -3.24000
H 0.86700 -6.33300 -0.08400
H 0.40400 -5.64200 -1.68000
H -0.89100 -5.99900 -0.46300
H -1.28300 -3.58100 4.02800
H 0.69800 -4.47800 7.75500
H 0.83300 -2.61900 7.68000
H 2.00000 -3.75400 6.97600
Mg 7.89020 0.70628 0.60596
C 8.05976 -2.78050 -0.22630
C 6.85594 -0.23943 3.71570
C 7.29889 3.76059 1.22963
C 7.82048 1.37662 -2.81333
N 7.54179 -1.28294 1.50808
C 7.69860 -2.53817 1.11544
C 7.53285 -3.59068 2.24430
C 6.61461 -2.73047 3.24217
C 7.05105 -1.32690 2.82720
C 5.12743 -2.87037 2.96278
C 8.90119 -3.97414 2.90961
C 8.85639 -5.21599 3.80266
H 10.02234 -6.09472 3.83188
N 7.65798 1.64115 2.34108
C 7.25267 1.10007 3.50908
C 7.22510 2.20729 4.47730
C 7.48838 3.47646 3.74613
C 7.47097 3.00064 2.37742
C 7.04590 1.99406 5.95238
C 7.70554 4.88741 4.20249
O 7.68014 5.87189 3.38213
C 7.85581 5.09229 5.65057
N 7.38836 2.32088 -0.60383
C 7.23839 3.55259 -0.08581
C 7.15233 4.59547 -1.17456
C 7.51985 3.83195 -2.53086
C 7.67448 2.39744 -1.97980
C 5.79684 5.28458 -1.33001
C 8.67593 4.42557 -3.38161
C 9.98764 4.27740 -2.64482
N 8.11605 -0.44339 -1.20934
C 8.02546 0.03103 -2.53629
C 8.13412 -1.14278 -3.42669
C 8.25828 -2.22987 -2.54845
C 8.20877 -1.76848 -1.20526
C 8.06353 -1.11803 -4.84814
C 8.40929 -3.66396 -2.45213
O 8.59476 -4.57406 -3.25902
C 8.16046 -4.09811 -0.94349
C 9.26818 -5.03241 -0.54030
O 10.44183 -4.62745 -0.46841
O 8.73332 -6.18519 -0.09827
C 9.79235 -7.14030 0.32369
H 6.30973 -0.41810 4.64232
H 7.20204 4.83729 1.38715
H 7.90597 1.51262 -3.89354
H 7.01499 -4.49544 1.94934
H 6.87504 -2.91941 4.28036
H 4.93811 -3.43425 2.06148
H 4.75049 -1.86084 2.86366
H 4.61919 -3.29787 3.83184
H 9.16108 -3.21408 3.65761
H 9.66652 -4.09045 2.16707
H 7.93953 -5.79887 3.65244
H 8.80038 -4.89215 4.84478
H 6.71009 0.97339 6.17340
H 6.21107 2.62905 6.26816
H 7.93350 2.26509 6.52803
H 6.96922 4.72408 6.16131
H 8.09132 6.15126 5.77300
H 8.69729 4.48610 6.00421
H 7.87355 5.38661 -1.01014
H 6.67044 3.81041 -3.22934
H 5.85388 6.38565 -1.23803
H 5.11953 4.87592 -0.59192
H 5.27622 5.07445 -2.26275
H 8.52379 5.49719 -3.53206
H 8.76677 3.97228 -4.36307
H 9.99122 5.13975 -1.97145
H 10.82393 4.31591 -3.33993
H 9.99030 3.37416 -2.02369
H 8.84587 -1.77179 -5.21014
H 8.17847 -0.10740 -5.23438
H 7.05152 -1.50284 -4.99988
H 7.18251 -4.57886 -0.89799
H 9.63266 -8.06421 -0.24073
H 9.71589 -7.20350 1.42547
H 10.81577 -6.90376 0.05702

