%nproc=24
%mem=175gb
#p cam-b3lyp/Def2SVP td=(nstates=5)

TDDFT excited states in gaussian

0 1
Mg 0.00000 0.00000 0.00000
C -0.21700 -2.21800 2.80100
C -1.25500 2.44200 2.02600
C -0.24500 1.85000 -2.56400
C 0.14600 -2.82400 -2.03700
N -0.61700 -0.00900 2.12600
C -0.59400 -0.90800 3.10500
C -0.93600 -0.30900 4.50200
C -1.77300 0.96400 4.03200
C -1.15500 1.16800 2.66000
C -3.26300 0.68500 3.86300
C 0.34500 0.11000 5.29900
C 0.12400 0.39700 6.78700
H 1.16800 0.03300 7.73300
N -0.18500 1.96100 -0.15200
C -0.70300 2.80000 0.77700
C -0.62000 4.15600 0.19300
C -0.18700 4.01500 -1.22500
C -0.21400 2.58300 -1.38000
C -0.88700 5.40600 0.97400
C 0.18100 5.01300 -2.27700
O 0.30300 4.69000 -3.50800
C 0.31000 6.41400 -1.83700
N -0.26500 -0.41300 -2.02900
C -0.27900 0.56900 -2.93700
C -0.19600 0.02400 -4.33200
C 0.12400 -1.53300 -4.18000
C 0.08600 -1.63200 -2.63500
C -1.45100 0.20500 -5.19700
C 1.37300 -2.07000 -4.92300
C 2.62600 -1.49000 -4.30600
N 0.15000 -2.14400 0.30300
C 0.17300 -3.13600 -0.68800
C 0.17300 -4.43800 0.00400
C 0.13300 -4.11100 1.35800
C 0.08300 -2.69500 1.50200
C 0.14900 -5.71500 -0.62300
C 0.09600 -4.62900 2.71600
O 0.20800 -5.74700 3.22100
C -0.25500 -3.42800 3.70100
C 0.71700 -3.48200 4.84800
O 1.93100 -3.25500 4.66900
O 0.03800 -3.55600 6.00300
C 0.94300 -3.58300 7.18300
H -1.85900 3.22000 2.49700
H -0.21800 2.45300 -3.47400
H 0.27600 -3.74700 -2.60500
H -1.55400 -0.94900 5.13200
H -1.58500 1.83100 4.66500
H -3.48400 -0.37700 3.96900
H -3.51100 1.02700 2.85800
H -3.85200 1.30100 4.54300
H 0.66900 1.09600 4.96600
H 1.13000 -0.63900 5.18900
H -0.84400 0.02600 7.12500
H 0.06200 1.47700 6.92100
H -1.34400 5.18600 1.93800
H -1.65100 5.96300 0.43200
H 0.00700 6.02000 1.08400
H -0.63500 6.74400 -1.40500
H 0.66500 6.97000 -2.70400
H 1.04800 6.46600 -1.03600
H 0.60800 0.50100 -4.89100
H -0.69200 -2.15600 -4.54700
H -1.26700 0.74000 -6.12900
H -2.20400 0.71400 -4.59600
H -1.96700 -0.72000 -5.45300
H 1.35600 -1.75900 -5.96700
H 1.45200 -3.15700 -4.90200
H 2.71400 -0.52200 -4.79800
H 3.48700 -2.12100 -4.52900
H 2.49500 -1.30300 -3.24000
H 0.86700 -6.33300 -0.08400
H 0.40400 -5.64200 -1.68000
H -0.89100 -5.99900 -0.46300
H -1.28300 -3.58100 4.02800
H 0.69800 -4.47800 7.75500
H 0.83300 -2.61900 7.68000
H 2.00000 -3.75400 6.97600
Mg 15.76791 1.41231 1.20537
C 13.16532 2.30456 3.50960
C 17.99885 2.08588 3.69612
C 18.09616 1.06978 -0.92286
C 13.47102 1.91321 -1.36739
N 15.49525 2.09874 3.29025
C 14.45698 2.34561 4.07473
C 14.81840 2.57516 5.56679
C 16.34181 3.04582 5.37554
C 16.65158 2.34112 4.05641
C 16.48677 4.54346 5.16253
C 14.72630 1.25746 6.41366
C 14.76375 1.46333 7.92957
H 13.96273 0.57952 8.77201
N 17.70729 1.08119 1.46564
C 18.44895 1.39842 2.54758
C 19.81992 0.96483 2.23676
C 19.85966 0.51566 0.81853
C 18.53175 0.89936 0.38319
C 20.91414 0.92767 3.26376
C 20.92202 -0.13793 -0.01239
O 20.82220 -0.22330 -1.28737
C 22.12526 -0.59152 0.70031
N 15.84689 1.68493 -0.85419
C 16.96869 1.41536 -1.54471
C 16.70807 1.42018 -3.03214
C 15.11919 1.51097 -3.18963
C 14.72431 1.63843 -1.70194
C 17.36288 2.55559 -3.81857
C 14.43275 0.41102 -4.04495
C 14.54169 -0.92673 -3.34928
N 13.65051 1.81952 1.06810
C 12.89467 2.01859 -0.10798
C 11.52448 2.37863 0.31080
C 11.58458 2.38661 1.71252
C 12.90442 2.07472 2.13707
C 10.44362 2.69227 -0.56069
C 10.83421 2.59836 2.92941
O 9.65045 2.80218 3.19570
C 11.85504 2.67865 4.14508
C 11.33441 1.79796 5.24773
O 11.26388 0.56605 5.09270
O 11.21162 2.52617 6.37246
C 10.70880 1.69375 7.49766
H 18.79027 2.48574 4.33067
H 18.83495 0.85418 -1.69822
H 12.67227 1.98906 -2.10828
H 14.24746 3.35405 6.05784
H 16.97630 2.66284 6.17060
H 15.52852 5.02997 5.05669
H 17.07056 4.65686 4.25844
H 17.08624 4.98213 5.96537
H 15.65025 0.68033 6.27955
H 13.85374 0.69340 6.14704
H 14.59986 2.51163 8.20735
H 15.77437 1.24692 8.28430
H 20.63098 1.47200 4.17311
H 21.75501 1.49904 2.85591
H 21.25060 -0.08765 3.48420
H 22.58793 0.25465 1.20269
H 22.72845 -1.11172 -0.04630
H 21.82333 -1.29585 1.48349
H 17.05448 0.50099 -3.48843
H 14.81097 2.44715 -3.67789
H 18.01796 2.19928 -4.63587
H 17.91992 3.17315 -3.12657
H 16.67077 3.27034 -4.26051
H 14.94352 0.30406 -5.00507
H 13.38888 0.61717 -4.25670
H 15.53870 -1.27384 -3.63663
H 13.76966 -1.60677 -3.70363
H 14.53618 -0.80538 -2.25983
H 9.57181 2.18382 -0.17092
H 10.65708 2.38961 -1.58372
H 10.41462 3.77974 -0.45190
H 11.91845 3.72358 4.45115
H 9.80996 2.18561 7.88215
H 11.56145 1.58659 8.19427
H 10.32538 0.70842 7.25982

