%nproc=24
%mem=175gb
#p cam-b3lyp/Def2SVP td=(nstates=5)

TDDFT excited states in gaussian

0 1
Mg 31.53651 2.83281 2.40313
C 28.84621 2.94797 4.77548
C 33.51271 4.23976 4.80099
C 33.80028 3.16084 0.20423
C 29.13156 2.51930 -0.09960
N 31.11872 3.46563 4.48092
C 30.07576 3.40371 5.29502
C 30.38681 3.77985 6.76857
C 31.68390 4.69213 6.51521
C 32.16247 4.07715 5.20165
C 31.35207 6.15390 6.26529
C 30.72957 2.52511 7.64616
C 30.74068 2.77936 9.15513
H 30.27508 1.71780 10.04327
N 33.48909 3.12552 2.60386
C 34.12373 3.68982 3.65271
C 35.55303 3.69177 3.30448
C 35.69322 3.23314 1.89568
C 34.30096 3.17396 1.49795
C 36.63115 4.02645 4.29396
C 36.88389 2.91447 1.04307
O 36.78242 2.76295 -0.22562
C 38.18653 2.87728 1.72370
N 31.47369 3.05252 0.33670
C 32.60550 3.12159 -0.38591
C 32.31774 2.99952 -1.86330
C 30.77541 2.58987 -1.96818
C 30.39919 2.63510 -0.47091
C 32.56786 4.25677 -2.69585
C 30.44167 1.30567 -2.77571
C 30.97778 0.08932 -2.05565
N 29.39434 2.56120 2.32976
C 28.58379 2.48037 1.17626
C 27.18082 2.41210 1.63391
C 27.27181 2.48170 3.03226
C 28.63387 2.60632 3.41793
C 26.03376 2.34916 0.79343
C 26.52458 2.48878 4.26931
O 25.34325 2.32491 4.57155
C 27.50144 2.91828 5.44730
C 27.30812 1.95442 6.58577
O 27.61880 0.75684 6.45969
O 26.99493 2.64351 7.69817
C 26.80416 1.73174 8.85752
H 34.15743 4.88411 5.39933
H 34.54915 3.16021 -0.59118
H 28.32969 2.32157 -0.81416
H 29.61556 4.35897 7.26207
H 32.42623 4.54884 7.29609
H 30.28782 6.31689 6.18193
H 31.84833 6.41409 5.33951
H 31.80670 6.78102 7.03754
H 31.78307 2.25793 7.49289
H 30.06814 1.71101 7.42174
H 30.26727 3.73375 9.41582
H 31.77745 2.89699 9.47959
H 36.21694 4.48453 5.20060
H 37.24270 4.81681 3.84539
H 37.27127 3.17218 4.52447
H 38.37708 3.84017 2.19168
H 38.90165 2.54610 0.96819
H 38.13812 2.13875 2.53168
H 32.91998 2.21872 -2.31137
H 30.17971 3.36935 -2.46556
H 33.27968 4.09523 -3.52729
H 32.92385 5.03740 -2.03674
H 31.67712 4.70857 -3.12905
H 30.93537 1.33210 -3.75024
H 29.38018 1.17244 -2.95595
H 32.02547 0.05861 -2.36947
H 30.44557 -0.80667 -2.36868
H 30.96320 0.23673 -0.96951
H 25.37282 1.60849 1.22364
H 26.30389 2.09574 -0.22959
H 25.67203 3.37724 0.87980
H 27.24584 3.94061 5.72854
H 25.80743 1.93338 9.26194
H 27.66580 1.91499 9.52665
H 26.73891 0.66927 8.65414

