%nproc=24
%mem=175gb
#p cam-b3lyp/Def2SVP td=(nstates=5)

TDDFT excited states in gaussian

0 1
Mg 0.00000 0.00000 0.00000
C -0.21700 -2.21800 2.80100
C -1.25500 2.44200 2.02600
C -0.24500 1.85000 -2.56400
C 0.14600 -2.82400 -2.03700
N -0.61700 -0.00900 2.12600
C -0.59400 -0.90800 3.10500
C -0.93600 -0.30900 4.50200
C -1.77300 0.96400 4.03200
C -1.15500 1.16800 2.66000
C -3.26300 0.68500 3.86300
C 0.34500 0.11000 5.29900
C 0.12400 0.39700 6.78700
H 1.16800 0.03300 7.73300
N -0.18500 1.96100 -0.15200
C -0.70300 2.80000 0.77700
C -0.62000 4.15600 0.19300
C -0.18700 4.01500 -1.22500
C -0.21400 2.58300 -1.38000
C -0.88700 5.40600 0.97400
C 0.18100 5.01300 -2.27700
O 0.30300 4.69000 -3.50800
C 0.31000 6.41400 -1.83700
N -0.26500 -0.41300 -2.02900
C -0.27900 0.56900 -2.93700
C -0.19600 0.02400 -4.33200
C 0.12400 -1.53300 -4.18000
C 0.08600 -1.63200 -2.63500
C -1.45100 0.20500 -5.19700
C 1.37300 -2.07000 -4.92300
C 2.62600 -1.49000 -4.30600
N 0.15000 -2.14400 0.30300
C 0.17300 -3.13600 -0.68800
C 0.17300 -4.43800 0.00400
C 0.13300 -4.11100 1.35800
C 0.08300 -2.69500 1.50200
C 0.14900 -5.71500 -0.62300
C 0.09600 -4.62900 2.71600
O 0.20800 -5.74700 3.22100
C -0.25500 -3.42800 3.70100
C 0.71700 -3.48200 4.84800
O 1.93100 -3.25500 4.66900
O 0.03800 -3.55600 6.00300
C 0.94300 -3.58300 7.18300
H -1.85900 3.22000 2.49700
H -0.21800 2.45300 -3.47400
H 0.27600 -3.74700 -2.60500
H -1.55400 -0.94900 5.13200
H -1.58500 1.83100 4.66500
H -3.48400 -0.37700 3.96900
H -3.51100 1.02700 2.85800
H -3.85200 1.30100 4.54300
H 0.66900 1.09600 4.96600
H 1.13000 -0.63900 5.18900
H -0.84400 0.02600 7.12500
H 0.06200 1.47700 6.92100
H -1.34400 5.18600 1.93800
H -1.65100 5.96300 0.43200
H 0.00700 6.02000 1.08400
H -0.63500 6.74400 -1.40500
H 0.66500 6.97000 -2.70400
H 1.04800 6.46600 -1.03600
H 0.60800 0.50100 -4.89100
H -0.69200 -2.15600 -4.54700
H -1.26700 0.74000 -6.12900
H -2.20400 0.71400 -4.59600
H -1.96700 -0.72000 -5.45300
H 1.35600 -1.75900 -5.96700
H 1.45200 -3.15700 -4.90200
H 2.71400 -0.52200 -4.79800
H 3.48700 -2.12100 -4.52900
H 2.49500 -1.30300 -3.24000
H 0.86700 -6.33300 -0.08400
H 0.40400 -5.64200 -1.68000
H -0.89100 -5.99900 -0.46300
H -1.28300 -3.58100 4.02800
H 0.69800 -4.47800 7.75500
H 0.83300 -2.61900 7.68000
H 2.00000 -3.75400 6.97600
Mg 13.14821 1.18721 0.99774
C 14.92797 -0.93014 3.28429
C 13.90522 3.79732 3.05902
C 11.21538 2.99817 -0.74927
C 11.59572 -1.68037 -0.23208
N 14.27742 1.29372 2.89663
C 14.96073 0.43485 3.63810
C 15.78758 1.08587 4.77917
C 14.93917 2.43871 4.94922
C 14.36152 2.54382 3.53928
C 13.78546 2.30635 5.92941
C 17.26663 1.38559 4.34953
C 18.21274 1.73372 5.50081
H 19.60019 1.28522 5.42138
N 13.02730 3.16232 0.84645
C 13.40133 4.07351 1.76900
C 13.08873 5.38764 1.18633
C 12.34829 5.17226 -0.08649
C 12.14565 3.73828 -0.03416
C 13.55632 6.67872 1.79289
C 11.88639 6.10457 -1.16521
O 11.05260 5.73290 -2.06493
C 12.36651 7.49172 -1.08277
N 11.47321 0.75673 -0.15612
C 10.84952 1.72064 -0.85598
C 9.84842 1.13267 -1.82164
C 10.10343 -0.44591 -1.79668
C 11.19566 -0.50861 -0.70650
C 8.37884 1.41551 -1.51063
C 10.37999 -1.13578 -3.16060
C 11.70941 -0.67376 -3.71249
N 13.35635 -0.94281 1.29396
C 12.58693 -1.96607 0.69812
C 13.02407 -3.24404 1.29655
C 14.00923 -2.87039 2.22301
C 14.16016 -1.45734 2.21787
C 12.48699 -4.52839 0.99970
C 14.94829 -3.34910 3.21180
O 15.32625 -4.45877 3.58530
C 15.49560 -2.10354 4.03365
C 16.99262 -2.22375 4.11722
O 17.69144 -2.14268 3.09170
O 17.36541 -2.19637 5.40975
C 18.84284 -2.30155 5.54377
H 13.89161 4.64288 3.74729
H 10.59889 3.56616 -1.44984
H 11.22941 -2.62811 -0.63243
H 15.79311 0.53101 5.70969
H 15.58569 3.28646 5.16059
H 13.65416 1.28735 6.26190
H 12.90685 2.64688 5.39731
H 13.91927 2.99941 6.76493
H 17.29306 2.33084 3.79225
H 17.67163 0.56965 3.78311
H 17.78289 1.48218 6.47800
H 18.33521 2.81906 5.53323
H 13.93560 6.53050 2.81150
H 12.67087 7.31052 1.92201
H 14.27639 7.20411 1.16192
H 12.05959 7.92428 -0.13348
H 12.00269 7.98119 -1.98827
H 13.46220 7.48341 -1.08523
H 10.01821 1.50023 -2.82622
H 9.23432 -0.99287 -1.40259
H 7.84507 1.91446 -2.34142
H 8.32956 2.01594 -0.61197
H 7.78822 0.54259 -1.23792
H 9.62227 -0.84529 -3.89247
H 10.37568 -2.21926 -3.10535
H 11.45847 0.27280 -4.20049
H 12.09893 -1.39544 -4.42767
H 12.41515 -0.45080 -2.90387
H 13.32734 -5.20347 0.90716
H 11.88957 -4.50907 0.09058
H 11.87444 -4.69416 1.88996
H 15.02722 -2.12939 5.01830
H 19.04421 -3.15327 6.20082
H 19.18300 -1.30728 5.88940
H 19.40781 -2.57722 4.66101

