%nproc=24
%mem=175gb
#p cam-b3lyp/Def2SVP td=(nstates=5)

TDDFT excited states in gaussian

0 1
Mg 31.54184 2.84342 2.39750
C 32.76051 0.71745 5.01936
C 31.68380 5.42187 4.62597
C 30.05013 4.64652 0.25483
C 30.43086 -0.03202 0.77170
N 32.15997 2.93293 4.51933
C 32.66315 2.07402 5.39307
C 33.16047 2.71820 6.71492
C 32.25603 4.04496 6.69101
C 32.04401 4.16911 5.18360
C 30.89945 3.86051 7.35056
C 34.69016 3.06495 6.67234
C 35.30954 3.40914 8.02868
H 36.68607 2.99750 8.28982
N 31.40284 4.81793 2.25410
C 31.50822 5.71599 3.25593
C 31.31077 7.03538 2.63595
C 30.91671 6.83189 1.21537
C 30.75075 5.39245 1.19145
C 31.57381 8.32295 3.36148
C 30.70950 7.77775 0.07143
O 30.13706 7.40685 -1.01373
C 31.11203 9.17412 0.29419
N 30.21991 2.39876 0.85571
C 29.76095 3.36315 0.03887
C 29.04943 2.77346 -1.15545
C 29.33771 1.20160 -1.09432
C 30.12612 1.14033 0.23235
C 27.54083 3.01198 -1.21559
C 29.96521 0.55151 -2.35776
C 31.37552 1.05964 -2.55326
N 31.73394 0.71283 2.70036
C 31.16795 -0.31488 1.91453
C 31.48097 -1.59540 2.58140
C 32.19325 -1.21937 3.73020
C 32.29806 0.19673 3.78658
C 31.07348 -2.88535 2.13857
C 32.87111 -1.69783 4.91354
O 33.17767 -2.80628 5.35070
C 33.15920 -0.45889 5.86664
C 34.59142 -0.54357 6.31843
O 35.52040 -0.42067 5.50081
O 34.63029 -0.53763 7.66335
C 36.03054 -0.60899 8.15937
H 31.47409 6.25022 5.30328
H 29.61025 5.21543 -0.56757
H 30.20427 -0.97883 0.27684
H 32.95130 2.14166 7.60802
H 32.80389 4.90335 7.07098
H 30.72043 2.83092 7.62268
H 30.17079 4.19152 6.62219
H 30.80047 4.53663 8.20461
H 34.82575 4.02355 6.15519
H 35.24763 2.27310 6.21101
H 34.65811 3.12376 8.86363
H 35.38734 4.49612 8.10883
H 31.69234 8.16007 4.43982
H 30.66542 8.92916 3.27658
H 32.41192 8.88104 2.93869
H 30.56593 9.57616 1.14424
H 30.97007 9.67574 -0.66503
H 32.17370 9.19328 0.56458
H 29.45239 3.16895 -2.07975
H 28.41481 0.62386 -0.93838
H 27.21549 3.51705 -2.14464
H 27.25169 3.58944 -0.34757
H 26.92755 2.11832 -1.11331
H 29.40475 0.84029 -3.25031
H 29.97997 -0.53274 -2.32355
H 31.22532 2.01097 -3.07240
H 31.95214 0.36514 -3.16091
H 31.85112 1.28088 -1.59071
H 31.93042 -3.53682 2.24693
H 30.72043 -2.85936 1.10976
H 30.26419 -3.08752 2.84528
H 32.46182 -0.51985 6.70301
H 36.08789 -1.47080 8.83144
H 36.24400 0.38498 8.59550
H 36.80521 -0.84936 7.44065

