%nproc=24
%mem=175gb
#p cam-b3lyp/Def2SVP td=(nstates=5)

TDDFT excited states in gaussian

0 1
Mg 13.14506 1.19118 0.99880
C 12.58981 2.18004 4.40363
C 12.05297 4.28860 0.07797
C 13.19404 0.20324 -2.01600
C 13.09032 -2.11613 2.09625
N 12.44041 2.92333 2.18007
C 12.33108 3.20486 3.46969
C 11.99924 4.68957 3.77803
C 11.30551 5.07581 2.38217
C 11.99713 4.05937 1.47598
C 9.81131 4.80004 2.35610
C 13.28661 5.54850 4.03672
C 13.02741 6.92863 4.64483
H 13.99599 7.46200 5.59868
N 13.16385 2.22910 -0.69264
C 12.70026 3.48204 -0.88370
C 12.92692 3.78237 -2.30587
C 13.41121 2.54461 -2.97530
C 13.25184 1.58458 -1.90151
C 12.76063 5.15788 -2.88360
C 13.91997 2.26792 -4.35761
O 14.06186 1.07189 -4.79603
C 14.15845 3.43825 -5.21490
N 12.93177 -0.68356 0.12576
C 13.04752 -0.84405 -1.20419
C 13.13221 -2.30625 -1.57186
C 13.29319 -3.08895 -0.18657
C 13.17912 -1.89888 0.79123
C 11.93592 -2.86980 -2.33848
C 14.51365 -4.04051 -0.05357
C 15.79477 -3.23804 -0.04075
N 13.07457 0.18790 2.91100
C 13.03364 -1.20448 3.14271
C 12.87592 -1.39910 4.59862
C 12.81240 -0.09592 5.11455
C 12.90246 0.84439 4.05286
C 12.76200 -2.65291 5.26278
C 12.67897 0.69798 6.31480
O 12.65176 0.45256 7.52011
C 12.40180 2.20578 5.89515
C 13.31539 3.08776 6.70137
O 14.54785 3.03233 6.54461
O 12.57810 3.99868 7.36243
C 13.44052 4.90383 8.16787
H 11.51490 5.14507 -0.32924
H 13.31845 -0.19170 -3.02695
H 13.16330 -3.11670 2.52777
H 11.30208 4.83929 4.59371
H 11.55937 6.08912 2.08197
H 9.48243 4.27807 3.24239
H 9.63907 4.19555 1.47520
H 9.25901 5.73043 2.19587
H 13.71822 5.84613 3.07241
H 13.98719 5.01104 4.64578
H 12.00840 7.02014 5.04006
H 13.07327 7.67364 3.84679
H 12.23680 5.82552 -2.18843
H 12.08004 5.06614 -3.73697
H 13.70394 5.58678 -3.22839
H 13.23482 4.00221 -5.32124
H 14.60363 3.04398 -6.13046
H 14.87467 4.09891 -4.71374
H 14.00143 -2.50031 -2.18821
H 12.43252 -3.74389 0.01378
H 12.21359 -3.32322 -3.30872
H 11.21718 -2.07404 -2.48244
H 11.35166 -3.61424 -1.80029
H 14.57212 -4.70472 -0.91934
H 14.47832 -4.66720 0.83131
H 15.99302 -3.07267 -1.10397
H 16.59724 -3.80497 0.42687
H 15.63977 -2.25657 0.42222
H 13.38583 -2.59580 6.14486
H 13.06171 -3.47442 4.61543
H 11.68906 -2.66584 5.47233
H 11.35007 2.41363 6.09577
H 13.08096 4.85272 9.20024
H 13.39159 5.88825 7.66559
H 14.48057 4.62579 8.29214

