%nproc=24
%mem=175gb
#p cam-b3lyp/Def2SVP td=(nstates=5)

TDDFT excited states in gaussian

0 1
Mg 10.51804 0.95196 0.79313
C 9.91392 4.22570 2.13355
C 9.75287 2.23024 -2.27528
C 10.60228 -2.00653 -0.35038
C 10.11565 -0.29316 4.02322
N 9.92593 2.98092 0.14121
C 9.78907 4.15936 0.73018
C 9.58169 5.34692 -0.24770
C 8.98498 4.53004 -1.49490
C 9.61805 3.16755 -1.22011
C 7.47424 4.37365 -1.44457
C 10.93024 6.05796 -0.61901
C 10.77307 7.40921 -1.31983
H 11.74569 8.45979 -1.03215
N 10.70212 0.30101 -1.07260
C 10.36331 0.95894 -2.20114
C 10.67559 0.04358 -3.30964
C 11.07227 -1.27069 -2.73514
C 10.78121 -1.04439 -1.33366
C 10.65991 0.47250 -4.74812
C 11.61085 -2.52803 -3.34769
O 11.66104 -3.62841 -2.69234
C 11.99080 -2.45571 -4.76610
N 10.17098 -0.90533 1.66050
C 10.32695 -2.03845 0.95365
C 10.29297 -3.25127 1.85271
C 10.32384 -2.68000 3.34612
C 10.27829 -1.16700 3.03929
C 9.08322 -4.17030 1.68456
C 11.44565 -3.21139 4.27984
C 12.79307 -2.72609 3.79576
N 10.27648 1.79691 2.76690
C 10.09889 1.09507 3.97932
C 9.86345 2.10171 5.03463
C 9.89779 3.32789 4.35361
C 10.11759 3.10025 2.96820
C 9.60786 1.82395 6.40709
C 9.78750 4.76244 4.49002
O 9.68772 5.53973 5.43849
C 9.66699 5.40025 3.03914
C 10.62290 6.55892 2.96024
O 11.85061 6.37085 3.02329
O 9.94499 7.66618 2.60701
C 10.85215 8.84025 2.50484
H 9.31275 2.47176 -3.24318
H 10.73215 -3.04171 -0.67445
H 10.07885 -0.59520 5.07207
H 8.86771 6.09049 0.08563
H 9.34266 4.93330 -2.43873
H 7.06236 4.73683 -0.51473
H 7.28439 3.31394 -1.55415
H 7.01641 4.85338 -2.31439
H 11.42708 5.48969 -1.41586
H 11.55277 6.17043 0.24727
H 9.75109 7.79906 -1.23902
H 10.92005 7.26287 -2.39268
H 10.17072 1.44652 -4.87214
H 10.00997 -0.22801 -5.28359
H 11.65201 0.45328 -5.20422
H 11.12780 -2.15689 -5.35635
H 12.43591 -3.42495 -4.99919
H 12.74285 -1.66807 -4.88712
H 11.16578 -3.87321 1.69625
H 9.39933 -2.91781 3.89253
H 9.35854 -5.21500 1.44606
H 8.44682 -3.75900 0.91231
H 8.41146 -4.21069 2.54031
H 11.47926 -4.30319 4.24811
H 11.31634 -2.92321 5.31774
H 13.04978 -3.44863 3.01530
H 13.52018 -2.74429 4.60509
H 12.70921 -1.74232 3.31952
H 10.19696 2.52619 6.98182
H 9.85801 0.79520 6.65782
H 8.53042 2.00543 6.44544
H 8.63120 5.71414 2.90427
H 10.44667 9.61547 3.16234
H 10.91435 9.07673 1.42597
H 11.85635 8.73343 2.89805

