%nproc=24
%mem=175gb
#p cam-b3lyp/Def2SVP td=(nstates=5)

TDDFT excited states in gaussian

0 1
Mg 15.77270 1.42256 1.20548
C 15.65756 -1.43429 3.37439
C 14.52754 3.25487 3.79909
C 15.43739 3.85500 -0.80405
C 15.90720 -0.79514 -1.47955
N 15.20668 0.86897 3.27077
C 15.26440 -0.23389 4.00201
C 14.95624 -0.02344 5.50876
C 14.07961 1.31682 5.39001
C 14.65938 1.87384 4.09145
C 12.59882 1.05043 5.17637
C 16.25487 0.21289 6.35712
C 16.05959 0.11793 7.87192
H 17.13815 -0.44618 8.67874
N 15.55468 3.36258 1.56239
C 15.05326 3.93346 2.67772
C 15.08659 5.38433 2.43688
C 15.49500 5.61616 1.02473
C 15.49130 4.25674 0.52269
C 14.82729 6.39456 3.51653
C 15.82093 6.85732 0.25046
O 15.91982 6.84726 -1.02741
C 15.92874 8.10305 1.02377
N 15.47137 1.52281 -0.84915
C 15.41308 2.70754 -1.48233
C 15.46814 2.52850 -2.98076
C 15.82063 0.98650 -3.21653
C 15.82044 0.49989 -1.75071
C 14.18895 2.87974 -3.74015
C 17.06058 0.67490 -4.09862
C 18.32138 1.11703 -3.39131
N 15.96809 -0.71536 0.96228
C 15.97665 -1.43863 -0.25053
C 16.01467 -2.87359 0.09857
C 16.00225 -2.88632 1.50148
C 15.93911 -1.55404 1.99196
C 16.00599 -3.95532 -0.82658
C 16.01746 -3.72423 2.67893
O 16.15251 -4.92953 2.88570
C 15.66730 -2.82621 3.94279
C 16.66724 -3.13482 5.02325
O 17.86895 -2.85290 4.87152
O 16.01133 -3.50953 6.13669
C 16.96014 -3.81555 7.24028
H 13.92912 3.87231 4.46957
H 15.43284 4.66141 -1.54106
H 16.04975 -1.54653 -2.25915
H 14.37064 -0.81137 5.96703
H 14.27815 1.99325 6.21728
H 12.39654 0.00110 5.02103
H 12.32015 1.62303 4.30143
H 12.01784 1.46474 6.00531
H 16.55169 1.26614 6.27161
H 17.03669 -0.45471 6.05101
H 15.10039 -0.34389 8.13572
H 15.98998 1.13041 8.27697
H 14.39071 5.92752 4.40797
H 14.04152 7.06251 3.14740
H 15.71115 6.98856 3.75865
H 14.99170 8.28758 1.54373
H 16.25470 8.86253 0.31045
H 16.69584 7.97084 1.79494
H 16.25114 3.13827 -3.41458
H 15.00268 0.45458 -3.72432
H 14.34245 3.64694 -4.52241
H 13.44694 3.20906 -3.02496
H 13.69067 2.03873 -4.21935
H 17.01339 1.24135 -5.03193
H 17.15049 -0.37357 -4.36245
H 18.37565 2.18396 -3.62752
H 19.18596 0.58236 -3.77948
H 18.21560 1.02507 -2.30411
H 16.73975 -4.66956 -0.47737
H 16.22879 -3.61672 -1.83628
H 14.97027 -4.29038 -0.72517
H 14.64848 -3.07040 4.24601
H 16.74040 -4.83321 7.57756
H 16.83233 -3.00161 7.97846
H 18.01112 -3.89827 6.98918

