%nproc=24
%mem=175gb
#p cam-b3lyp/Def2SVP td=(nstates=5)

TDDFT excited states in gaussian

0 1
Mg 0.00000 0.00000 0.00000
C -0.21700 -2.21800 2.80100
C -1.25500 2.44200 2.02600
C -0.24500 1.85000 -2.56400
C 0.14600 -2.82400 -2.03700
N -0.61700 -0.00900 2.12600
C -0.59400 -0.90800 3.10500
C -0.93600 -0.30900 4.50200
C -1.77300 0.96400 4.03200
C -1.15500 1.16800 2.66000
C -3.26300 0.68500 3.86300
C 0.34500 0.11000 5.29900
C 0.12400 0.39700 6.78700
H 1.16800 0.03300 7.73300
N -0.18500 1.96100 -0.15200
C -0.70300 2.80000 0.77700
C -0.62000 4.15600 0.19300
C -0.18700 4.01500 -1.22500
C -0.21400 2.58300 -1.38000
C -0.88700 5.40600 0.97400
C 0.18100 5.01300 -2.27700
O 0.30300 4.69000 -3.50800
C 0.31000 6.41400 -1.83700
N -0.26500 -0.41300 -2.02900
C -0.27900 0.56900 -2.93700
C -0.19600 0.02400 -4.33200
C 0.12400 -1.53300 -4.18000
C 0.08600 -1.63200 -2.63500
C -1.45100 0.20500 -5.19700
C 1.37300 -2.07000 -4.92300
C 2.62600 -1.49000 -4.30600
N 0.15000 -2.14400 0.30300
C 0.17300 -3.13600 -0.68800
C 0.17300 -4.43800 0.00400
C 0.13300 -4.11100 1.35800
C 0.08300 -2.69500 1.50200
C 0.14900 -5.71500 -0.62300
C 0.09600 -4.62900 2.71600
O 0.20800 -5.74700 3.22100
C -0.25500 -3.42800 3.70100
C 0.71700 -3.48200 4.84800
O 1.93100 -3.25500 4.66900
O 0.03800 -3.55600 6.00300
C 0.94300 -3.58300 7.18300
H -1.85900 3.22000 2.49700
H -0.21800 2.45300 -3.47400
H 0.27600 -3.74700 -2.60500
H -1.55400 -0.94900 5.13200
H -1.58500 1.83100 4.66500
H -3.48400 -0.37700 3.96900
H -3.51100 1.02700 2.85800
H -3.85200 1.30100 4.54300
H 0.66900 1.09600 4.96600
H 1.13000 -0.63900 5.18900
H -0.84400 0.02600 7.12500
H 0.06200 1.47700 6.92100
H -1.34400 5.18600 1.93800
H -1.65100 5.96300 0.43200
H 0.00700 6.02000 1.08400
H -0.63500 6.74400 -1.40500
H 0.66500 6.97000 -2.70400
H 1.04800 6.46600 -1.03600
H 0.60800 0.50100 -4.89100
H -0.69200 -2.15600 -4.54700
H -1.26700 0.74000 -6.12900
H -2.20400 0.71400 -4.59600
H -1.96700 -0.72000 -5.45300
H 1.35600 -1.75900 -5.96700
H 1.45200 -3.15700 -4.90200
H 2.71400 -0.52200 -4.79800
H 3.48700 -2.12100 -4.52900
H 2.49500 -1.30300 -3.24000
H 0.86700 -6.33300 -0.08400
H 0.40400 -5.64200 -1.68000
H -0.89100 -5.99900 -0.46300
H -1.28300 -3.58100 4.02800
H 0.69800 -4.47800 7.75500
H 0.83300 -2.61900 7.68000
H 2.00000 -3.75400 6.97600
Mg 13.14486 1.18888 1.00406
C 12.84505 -0.46292 4.17593
C 11.89576 3.98315 2.50952
C 12.97245 2.53599 -1.86351
C 13.27182 -1.96631 -0.47050
N 12.49253 1.58498 3.08007
C 12.48212 0.89955 4.21340
C 12.13607 1.74121 5.47094
C 11.31931 2.92250 4.75239
C 11.96164 2.85695 3.36826
C 9.83621 2.62568 4.60523
C 13.41625 2.28654 6.19605
C 13.17014 2.85295 7.59618
H 14.19897 2.66240 8.61484
N 12.99564 3.09984 0.48975
C 12.48357 4.10448 1.23120
C 12.58391 5.31190 0.39679
C 13.04529 4.90798 -0.95920
C 13.00143 3.46494 -0.83358
C 12.33279 6.69256 0.92983
C 13.44585 5.69087 -2.17281
O 13.58400 5.13313 -3.31853
C 13.58056 7.14466 -2.00013
N 12.91206 0.40829 -0.90874
C 12.92220 1.20965 -1.98840
C 13.01653 0.40595 -3.26338
C 13.31260 -1.09673 -2.80309
C 13.24677 -0.90985 -1.27138
C 11.77711 0.42919 -4.15763
C 14.56560 -1.78494 -3.41058
C 15.82083 -1.11303 -2.90235
N 13.25982 -0.85179 1.70442
C 13.27647 -2.02408 0.91732
C 13.24467 -3.17253 1.84602
C 13.18803 -2.58399 3.11838
C 13.16438 -1.16883 2.99083
C 13.22042 -4.54538 1.47079
C 13.13215 -2.83822 4.53998
O 13.21111 -3.84227 5.24665
C 12.77994 -1.47805 5.28313
C 13.73222 -1.31884 6.43653
O 14.94863 -1.15754 6.23421
O 13.02711 -1.16586 7.57221
C 13.92773 -0.99321 8.74307
H 11.30259 4.84201 2.82479
H 13.02396 2.94978 -2.87327
H 13.40762 -2.98201 -0.84810
H 11.50464 1.23900 6.19403
H 11.51958 3.88273 5.22059
H 9.59598 1.61581 4.90285
H 9.60868 2.77574 3.55797
H 9.24718 3.36830 5.15103
H 13.75857 3.19474 5.68347
H 14.17916 1.53375 6.23974
H 12.18503 2.57120 7.98750
H 13.12956 3.94274 7.52745
H 11.84984 6.66198 1.91432
H 11.58697 7.15709 0.27574
H 13.23231 7.31183 0.93581
H 12.63613 7.55601 -1.65183
H 13.95948 7.51830 -2.95338
H 14.31718 7.33659 -1.21199
H 13.83702 0.75291 -3.87942
H 12.48972 -1.77504 -3.07256
H 11.98626 0.78444 -5.18433
H 11.02732 1.05020 -3.68573
H 11.25990 -0.52383 -4.25491
H 14.57079 -1.67090 -4.49737
H 14.62057 -2.84737 -3.19799
H 15.92618 -0.25110 -3.56799
H 16.67441 -1.78273 -2.98567
H 15.67755 -0.72883 -1.88573
H 13.91301 -5.05902 2.12423
H 13.48828 -4.67634 0.42443
H 12.16917 -4.78017 1.65788
H 11.74300 -1.54484 5.61459
H 13.65600 -1.76346 9.47147
H 13.81049 0.06096 9.05727
H 14.98173 -1.20033 8.59949

