%nproc=24
%mem=175gb
#p cam-b3lyp/Def2SVP td=(nstates=5)

TDDFT excited states in gaussian

0 1
Mg 31.53624 2.84369 2.40398
C 30.54437 0.53023 4.96195
C 29.62390 5.18292 3.98686
C 32.02548 4.77197 -0.06782
C 32.40791 0.09354 0.44884
N 30.29271 2.74856 4.23068
C 30.04086 1.83360 5.15468
C 29.26966 2.36495 6.39261
C 28.56316 3.63474 5.70898
C 29.56880 3.90141 4.59084
C 27.22070 3.30819 5.07612
C 30.23070 2.79881 7.55459
C 29.54479 3.03548 8.90191
H 30.26342 2.67637 10.12138
N 31.33135 4.81166 2.25013
C 30.52792 5.60628 2.98794
C 30.72612 6.96944 2.47154
C 31.58768 6.89166 1.26059
C 31.66621 5.45534 1.08477
C 30.18931 8.18812 3.16441
C 32.22374 7.93725 0.39551
O 32.73481 7.64875 -0.74397
C 32.14766 9.32349 0.87929
N 31.93097 2.48723 0.39414
C 32.15513 3.50355 -0.45721
C 32.68686 3.00127 -1.77833
C 33.00300 1.44995 -1.55237
C 32.49335 1.29640 -0.10252
C 31.75062 3.16040 -2.97604
C 34.44214 0.96929 -1.88478
C 35.42616 1.57251 -0.90846
N 31.67058 0.70724 2.69657
C 32.03196 -0.26402 1.73733
C 31.86656 -1.58697 2.37362
C 31.39469 -1.29214 3.66161
C 31.25527 0.11425 3.81028
C 32.09577 -2.84514 1.74866
C 30.97270 -1.85141 4.92567
O 30.95931 -2.98019 5.41497
C 30.28309 -0.70306 5.78130
C 30.85347 -0.75399 7.17220
O 32.05335 -0.49608 7.37311
O 29.84769 -0.88436 8.05639
C 30.36244 -0.92839 9.45099
H 28.87750 5.92420 4.27371
H 32.31138 5.39714 -0.91688
H 32.75207 -0.80844 -0.06172
H 28.51969 1.68881 6.78522
H 28.52047 4.47861 6.39267
H 27.01726 2.24771 5.08745
H 27.27913 3.67137 4.05841
H 26.42655 3.88625 5.55727
H 30.60240 3.81161 7.35252
H 31.02767 2.09090 7.67425
H 28.52597 2.62987 8.92265
H 29.40787 4.11108 9.03740
H 29.45744 7.92195 3.93702
H 29.60973 8.74836 2.42274
H 30.97943 8.83253 3.55570
H 31.10502 9.60489 1.00646
H 32.73461 9.91250 0.17188
H 32.61044 9.37375 1.87122
H 33.60417 3.51160 -2.04519
H 32.36578 0.80878 -2.17902
H 32.19800 3.73953 -3.80583
H 30.83673 3.62846 -2.63508
H 31.38674 2.22823 -3.40482
H 34.73757 1.31678 -2.87782
H 34.54978 -0.11022 -1.87613
H 35.61932 2.56239 -1.33263
H 36.33610 0.97742 -0.86474
H 34.96484 1.71961 0.07500
H 32.63002 -3.45561 2.46449
H 32.65699 -2.73307 0.82333
H 31.06565 -3.16370 1.56795
H 29.20833 -0.88850 5.77252
H 29.98313 -1.85026 9.90260
H 30.04952 0.02574 9.91519
H 31.43064 -1.05003 9.58736

