%nproc=24
%mem=175gb
#p cam-b3lyp/Def2SVP td=(nstates=5)

TDDFT excited states in gaussian

0 1
Mg 13.12966 1.18624 1.00268
C 10.93291 -1.57951 0.36713
C 10.93878 3.13402 -0.74111
C 15.25310 3.53888 1.15618
C 15.63682 -1.13919 1.67514
N 11.21769 0.72209 -0.00785
C 10.45088 -0.35090 -0.13049
C 9.05605 -0.07678 -0.75409
C 9.41232 1.26628 -1.55915
C 10.57359 1.76466 -0.70139
C 9.93271 1.00629 -2.96306
C 7.95506 0.18060 0.33383
C 6.51649 0.14877 -0.18699
H 5.47407 -0.39308 0.68033
N 12.90111 3.14116 0.74841
C 11.94350 3.76154 0.02772
C 12.22514 5.20111 0.13933
C 13.52235 5.37170 0.84845
C 13.96225 3.99324 0.92854
C 11.26603 6.25660 -0.32916
C 14.25287 6.57730 1.35743
O 15.47740 6.51472 1.73085
C 13.52151 7.85208 1.31804
N 15.20293 1.20653 1.15595
C 15.87727 2.36529 1.25829
C 17.32017 2.12541 1.63364
C 17.41613 0.57171 2.00025
C 15.96835 0.14465 1.67322
C 18.35202 2.45849 0.55627
C 17.99534 0.21242 3.39599
C 17.04780 0.67011 4.48139
N 13.24486 -0.96160 1.20656
C 14.39903 -1.73324 1.46451
C 13.99688 -3.15326 1.39936
C 12.63074 -3.10927 1.08280
C 12.21564 -1.75773 0.93948
C 14.86089 -4.27128 1.57148
C 11.44781 -3.89911 0.82682
O 11.17193 -5.09638 0.89149
C 10.32461 -2.94740 0.22762
C 9.04189 -3.22215 0.96359
O 8.93912 -2.95859 2.17462
O 8.08452 -3.54506 0.07503
C 6.79045 -3.81578 0.75614
H 10.43788 3.78395 -1.45915
H 16.00294 4.31490 1.32647
H 16.33828 -1.92280 1.96940
H 8.70706 -0.83970 -1.43960
H 8.58743 1.97352 -1.53223
H 10.08916 -0.04638 -3.14622
H 10.86799 1.54589 -3.03473
H 9.26590 1.45948 -3.70219
H 8.01312 1.22652 0.66158
H 8.05883 -0.50658 1.15093
H 6.45053 -0.29243 -1.18895
H 6.17421 1.17740 -0.32402
H 10.47408 5.83028 -0.95723
H 11.82175 6.91694 -1.00370
H 10.85983 6.85103 0.49201
H 13.22494 8.06678 0.29412
H 14.17466 8.57887 1.80491
H 12.59765 7.74342 1.89708
H 17.59577 2.70934 2.50322
H 18.06945 0.02794 1.30217
H 19.11018 3.19194 0.88991
H 17.82800 2.82379 -0.31694
H 18.89645 1.60386 0.15827
H 18.93700 0.74121 3.56279
H 18.19412 -0.84669 3.52155
H 17.30609 1.72605 4.60532
H 17.21857 0.11161 5.39952
H 16.00695 0.62314 4.14069
H 14.33419 -4.97815 2.19871
H 15.80988 -3.97593 2.01415
H 14.97467 -4.59163 0.53239
H 10.24126 -3.16897 -0.83706
H 6.47139 -4.81677 0.44969
H 6.12852 -2.97149 0.48639
H 6.80381 -3.91906 1.83484

