%nproc=24
%mem=175gb
#p cam-b3lyp/Def2SVP td=(nstates=5)

TDDFT excited states in gaussian

0 1
Mg 15.76980 1.41313 1.20545
C 13.07721 1.68515 3.56236
C 17.81545 2.68062 3.62276
C 18.06349 1.60936 -0.97809
C 13.36567 1.26442 -1.31323
N 15.37958 2.06031 3.28419
C 14.32970 2.05995 4.09172
C 14.65452 2.40820 5.56914
C 16.00798 3.23835 5.32854
C 16.45518 2.60123 4.01448
C 15.77031 4.71936 5.08473
C 14.91218 1.12989 6.44181
C 14.92976 1.37518 7.95220
H 14.39276 0.34047 8.83169
N 17.73563 1.58138 1.41941
C 18.39789 2.09923 2.47511
C 19.82664 2.01303 2.13541
C 19.94656 1.55374 0.72496
C 18.55586 1.58431 0.31863
C 20.91744 2.27413 3.13312
C 21.12017 1.16516 -0.12230
O 21.01734 1.02684 -1.39239
C 22.41359 1.04259 0.56585
N 15.73390 1.64697 -0.86007
C 16.87233 1.64840 -1.57553
C 16.58676 1.55227 -3.05526
C 15.02241 1.24102 -3.17158
C 14.64038 1.30214 -1.67635
C 16.92067 2.79555 -3.87936
C 14.61365 -0.01548 -3.98815
C 15.06768 -1.26683 -3.27165
N 13.61529 1.27723 1.11785
C 12.80852 1.25348 -0.04088
C 11.40119 1.27127 0.40803
C 11.48759 1.32783 1.80725
C 12.85234 1.36452 2.20171
C 10.25775 1.28494 -0.43959
C 10.73452 1.37555 3.03986
O 9.54336 1.28478 3.33416
C 11.72904 1.73668 4.22600
C 11.46834 0.78106 5.35796
O 11.70388 -0.43303 5.22712
O 11.19212 1.48277 6.47226
C 10.93711 0.57886 7.62540
H 18.49565 3.28005 4.22848
H 18.81582 1.56571 -1.76903
H 12.55746 1.12121 -2.03362
H 13.91812 3.03216 6.06124
H 16.73490 3.04463 6.11303
H 14.71896 4.94942 4.99594
H 16.28776 4.95257 4.16337
H 16.25862 5.31266 5.86312
H 15.94773 0.79774 6.29334
H 14.20228 0.36018 6.20897
H 14.51569 2.35612 8.21534
H 15.96983 1.42568 8.28347
H 20.52716 2.75270 4.03979
H 21.58029 3.02674 2.69256
H 21.50111 1.38010 3.36271
H 22.66137 1.98916 1.04026
H 23.11120 0.67095 -0.18721
H 22.31376 0.30443 1.36944
H 17.14151 0.73744 -3.50405
H 14.48005 2.05898 -3.66818
H 17.62614 2.59381 -4.70743
H 17.32091 3.54884 -3.21384
H 16.06285 3.30472 -4.31535
H 15.11415 -0.01515 -4.95957
H 13.54704 -0.08073 -4.17544
H 16.11332 -1.36178 -3.57940
H 14.48215 -2.12594 -3.59279
H 15.05557 -1.12438 -2.18481
H 9.54885 0.58513 -0.01742
H 10.51783 1.02029 -1.46238
H 9.96085 2.33329 -0.34971
H 11.53647 2.77161 4.51135
H 9.95251 0.84074 8.02499
H 11.80434 0.70410 8.30065
H 10.80645 -0.47633 7.41577

