%nproc=24
%mem=175gb
#p cam-b3lyp/Def2SVP td=(nstates=5)

TDDFT excited states in gaussian

0 1
Mg 10.51789 0.94428 0.80611
C 8.37702 -0.37816 3.36480
C 11.38061 3.40288 3.00739
C 12.06050 2.38615 -1.56218
C 8.66032 -0.89045 -1.50233
N 9.89285 1.35221 2.88822
C 9.12140 0.74630 3.77821
C 9.21087 1.33315 5.21250
C 9.70889 2.81278 4.83628
C 10.40374 2.50720 3.51096
C 8.56910 3.78083 4.56592
C 10.26310 0.58155 6.10127
C 10.18395 0.89653 7.59669
H 10.47065 -0.17250 8.54929
N 11.92857 2.33938 0.85375
C 12.15073 3.23879 1.83507
C 13.28826 4.05475 1.38298
C 13.61406 3.67040 -0.01732
C 12.50961 2.77890 -0.30974
C 14.00110 5.02487 2.27972
C 14.72749 4.05313 -0.94468
O 14.68302 3.78450 -2.19715
C 15.82805 4.83365 -0.36067
N 10.25305 0.94333 -1.25597
C 11.09571 1.61339 -2.06151
C 10.87506 1.24499 -3.50926
C 9.86819 0.00268 -3.48782
C 9.59936 -0.07898 -1.96912
C 10.30143 2.34940 -4.39674
C 10.32311 -1.28477 -4.22822
C 11.50222 -1.90277 -3.51187
N 8.94706 -0.53625 0.89869
C 8.29366 -1.15579 -0.18911
C 7.22095 -2.00235 0.37219
C 7.31057 -1.79711 1.75723
C 8.35159 -0.87134 2.03782
C 6.29838 -2.78338 -0.37945
C 6.75431 -2.14495 3.04497
O 5.91040 -2.94932 3.43808
C 7.33728 -1.14479 4.13411
C 7.79627 -1.95817 5.31321
O 8.74783 -2.75113 5.20208
O 7.18289 -1.50955 6.42356
C 7.61408 -2.27796 7.62166
H 11.54526 4.34198 3.53641
H 12.63237 2.77039 -2.41000
H 8.10082 -1.56919 -2.14958
H 8.26749 1.38201 5.74298
H 10.42414 3.18592 5.56466
H 7.61111 3.28254 4.55586
H 8.77809 4.21851 3.59855
H 8.59769 4.60645 5.28277
H 11.26416 0.97326 5.87949
H 10.20038 -0.47876 5.95151
H 9.25002 1.40702 7.86153
H 10.96418 1.62171 7.84035
H 13.43401 5.21370 3.19959
H 14.01003 5.99070 1.76304
H 15.03058 4.72658 2.48916
H 15.43319 5.75455 0.06180
H 16.56924 4.93404 -1.15594
H 16.25754 4.26450 0.47133
H 11.80288 0.93735 -3.97576
H 8.90772 0.24839 -3.96421
H 10.93682 2.57957 -5.27274
H 10.15532 3.23332 -3.79021
H 9.29880 2.16200 -4.77728
H 10.66585 -1.04060 -5.23671
H 9.53804 -2.02715 -4.32582
H 12.35259 -1.33460 -3.90064
H 11.58839 -2.95946 -3.75689
H 11.44802 -1.71802 -2.43271
H 6.21957 -3.73932 0.12101
H 6.62381 -2.89950 -1.41114
H 5.40395 -2.15986 -0.29887
H 6.53984 -0.45035 4.40133
H 6.70774 -2.67208 8.09167
H 8.22847 -1.57894 8.21970
H 8.17956 -3.18764 7.45686

