%nproc=24
%mem=175gb
#p cam-b3lyp/Def2SVP td=(nstates=5)

TDDFT excited states in gaussian

0 1
Mg 0.00000 0.00000 0.00000
C -0.21700 -2.21800 2.80100
C -1.25500 2.44200 2.02600
C -0.24500 1.85000 -2.56400
C 0.14600 -2.82400 -2.03700
N -0.61700 -0.00900 2.12600
C -0.59400 -0.90800 3.10500
C -0.93600 -0.30900 4.50200
C -1.77300 0.96400 4.03200
C -1.15500 1.16800 2.66000
C -3.26300 0.68500 3.86300
C 0.34500 0.11000 5.29900
C 0.12400 0.39700 6.78700
H 1.16800 0.03300 7.73300
N -0.18500 1.96100 -0.15200
C -0.70300 2.80000 0.77700
C -0.62000 4.15600 0.19300
C -0.18700 4.01500 -1.22500
C -0.21400 2.58300 -1.38000
C -0.88700 5.40600 0.97400
C 0.18100 5.01300 -2.27700
O 0.30300 4.69000 -3.50800
C 0.31000 6.41400 -1.83700
N -0.26500 -0.41300 -2.02900
C -0.27900 0.56900 -2.93700
C -0.19600 0.02400 -4.33200
C 0.12400 -1.53300 -4.18000
C 0.08600 -1.63200 -2.63500
C -1.45100 0.20500 -5.19700
C 1.37300 -2.07000 -4.92300
C 2.62600 -1.49000 -4.30600
N 0.15000 -2.14400 0.30300
C 0.17300 -3.13600 -0.68800
C 0.17300 -4.43800 0.00400
C 0.13300 -4.11100 1.35800
C 0.08300 -2.69500 1.50200
C 0.14900 -5.71500 -0.62300
C 0.09600 -4.62900 2.71600
O 0.20800 -5.74700 3.22100
C -0.25500 -3.42800 3.70100
C 0.71700 -3.48200 4.84800
O 1.93100 -3.25500 4.66900
O 0.03800 -3.55600 6.00300
C 0.94300 -3.58300 7.18300
H -1.85900 3.22000 2.49700
H -0.21800 2.45300 -3.47400
H 0.27600 -3.74700 -2.60500
H -1.55400 -0.94900 5.13200
H -1.58500 1.83100 4.66500
H -3.48400 -0.37700 3.96900
H -3.51100 1.02700 2.85800
H -3.85200 1.30100 4.54300
H 0.66900 1.09600 4.96600
H 1.13000 -0.63900 5.18900
H -0.84400 0.02600 7.12500
H 0.06200 1.47700 6.92100
H -1.34400 5.18600 1.93800
H -1.65100 5.96300 0.43200
H 0.00700 6.02000 1.08400
H -0.63500 6.74400 -1.40500
H 0.66500 6.97000 -2.70400
H 1.04800 6.46600 -1.03600
H 0.60800 0.50100 -4.89100
H -0.69200 -2.15600 -4.54700
H -1.26700 0.74000 -6.12900
H -2.20400 0.71400 -4.59600
H -1.96700 -0.72000 -5.45300
H 1.35600 -1.75900 -5.96700
H 1.45200 -3.15700 -4.90200
H 2.71400 -0.52200 -4.79800
H 3.48700 -2.12100 -4.52900
H 2.49500 -1.30300 -3.24000
H 0.86700 -6.33300 -0.08400
H 0.40400 -5.64200 -1.68000
H -0.89100 -5.99900 -0.46300
H -1.28300 -3.58100 4.02800
H 0.69800 -4.47800 7.75500
H 0.83300 -2.61900 7.68000
H 2.00000 -3.75400 6.97600
Mg 7.88979 0.71786 0.59763
C 7.28807 2.53421 3.63373
C 6.88416 3.50451 -1.09289
C 7.97769 -0.99207 -2.07367
C 7.74100 -2.20944 2.48296
N 7.19952 2.70117 1.29208
C 7.07051 3.29745 2.46773
C 6.76499 4.81727 2.38799
C 6.10797 4.85394 0.92312
C 6.79531 3.63246 0.31630
C 4.60894 4.60449 0.92946
C 8.06533 5.69275 2.45638
C 7.82412 7.18498 2.69474
H 8.78477 7.92392 3.50934
N 7.96512 1.30023 -1.29808
C 7.53287 2.47310 -1.80682
C 7.79449 2.40520 -3.25289
C 8.26502 1.03189 -3.58048
C 8.06327 0.37301 -2.30562
C 7.66984 3.59543 -4.15912
C 8.79525 0.41071 -4.83714
O 8.91981 -0.85902 -4.96000
C 9.07632 1.32598 -5.95284
N 7.65326 -1.31178 0.21432
C 7.79212 -1.80104 -1.03038
C 7.85228 -3.30990 -1.01984
C 7.96836 -3.72449 0.52037
C 7.86067 -2.32631 1.16760
C 6.65961 -4.02764 -1.65131
C 9.16488 -4.63224 0.91660
C 10.46266 -3.87271 0.76087
N 7.75912 0.22497 2.69717
C 7.68322 -1.06463 3.26747
C 7.49213 -0.88707 4.72156
C 7.44670 0.50449 4.89471
C 7.57850 1.14842 3.63476
C 7.33762 -1.93338 5.67418
C 7.30656 1.57494 5.85555
O 7.24984 1.63864 7.08293
C 7.07079 2.93450 5.06662
C 7.98703 3.97498 5.65006
O 9.22088 3.86234 5.54275
O 7.25665 5.03384 6.04472
C 8.12228 6.09740 6.62036
H 6.37315 4.24075 -1.71394
H 8.11371 -1.62883 -2.95089
H 7.78349 -3.07165 3.15189
H 6.05504 5.17708 3.12303
H 6.38982 5.75601 0.38627
H 4.25106 4.32566 1.90942
H 4.44127 3.80209 0.22300
H 4.08037 5.47419 0.52875
H 8.52257 5.73323 1.45937
H 8.74167 5.31314 3.19739
H 6.79963 7.38865 3.02923
H 7.90220 7.70634 1.73760
H 7.14685 4.42382 -3.66551
H 7.00466 3.30453 -4.97935
H 8.62900 3.90943 -4.57637
H 8.16751 1.86034 -6.21929
H 9.53108 0.70852 -6.72989
H 9.79657 2.07922 -5.61449
H 8.72926 -3.66565 -1.54657
H 7.08977 -4.29473 0.85616
H 6.94673 -4.71333 -2.47074
H 5.96142 -3.28155 -2.00686
H 6.04859 -4.60466 -0.95928
H 9.22621 -5.49240 0.24540
H 9.09816 -5.01753 1.92857
H 10.68575 -3.98121 -0.30475
H 11.24305 -4.31779 1.37482
H 10.31984 -2.80437 0.96064
H 7.94474 -1.66793 6.52942
H 7.63228 -2.89519 5.25963
H 6.26067 -1.87631 5.85361
H 6.02003 3.20275 5.18291
H 7.74105 6.31142 7.62363
H 8.10489 6.92591 5.88755
H 9.15332 5.84247 6.83581

