%nproc=24
%mem=175gb
#p cam-b3lyp/Def2SVP td=(nstates=5)

TDDFT excited states in gaussian

0 1
Mg 0.00000 0.00000 0.00000
C -0.21700 -2.21800 2.80100
C -1.25500 2.44200 2.02600
C -0.24500 1.85000 -2.56400
C 0.14600 -2.82400 -2.03700
N -0.61700 -0.00900 2.12600
C -0.59400 -0.90800 3.10500
C -0.93600 -0.30900 4.50200
C -1.77300 0.96400 4.03200
C -1.15500 1.16800 2.66000
C -3.26300 0.68500 3.86300
C 0.34500 0.11000 5.29900
C 0.12400 0.39700 6.78700
H 1.16800 0.03300 7.73300
N -0.18500 1.96100 -0.15200
C -0.70300 2.80000 0.77700
C -0.62000 4.15600 0.19300
C -0.18700 4.01500 -1.22500
C -0.21400 2.58300 -1.38000
C -0.88700 5.40600 0.97400
C 0.18100 5.01300 -2.27700
O 0.30300 4.69000 -3.50800
C 0.31000 6.41400 -1.83700
N -0.26500 -0.41300 -2.02900
C -0.27900 0.56900 -2.93700
C -0.19600 0.02400 -4.33200
C 0.12400 -1.53300 -4.18000
C 0.08600 -1.63200 -2.63500
C -1.45100 0.20500 -5.19700
C 1.37300 -2.07000 -4.92300
C 2.62600 -1.49000 -4.30600
N 0.15000 -2.14400 0.30300
C 0.17300 -3.13600 -0.68800
C 0.17300 -4.43800 0.00400
C 0.13300 -4.11100 1.35800
C 0.08300 -2.69500 1.50200
C 0.14900 -5.71500 -0.62300
C 0.09600 -4.62900 2.71600
O 0.20800 -5.74700 3.22100
C -0.25500 -3.42800 3.70100
C 0.71700 -3.48200 4.84800
O 1.93100 -3.25500 4.66900
O 0.03800 -3.55600 6.00300
C 0.94300 -3.58300 7.18300
H -1.85900 3.22000 2.49700
H -0.21800 2.45300 -3.47400
H 0.27600 -3.74700 -2.60500
H -1.55400 -0.94900 5.13200
H -1.58500 1.83100 4.66500
H -3.48400 -0.37700 3.96900
H -3.51100 1.02700 2.85800
H -3.85200 1.30100 4.54300
H 0.66900 1.09600 4.96600
H 1.13000 -0.63900 5.18900
H -0.84400 0.02600 7.12500
H 0.06200 1.47700 6.92100
H -1.34400 5.18600 1.93800
H -1.65100 5.96300 0.43200
H 0.00700 6.02000 1.08400
H -0.63500 6.74400 -1.40500
H 0.66500 6.97000 -2.70400
H 1.04800 6.46600 -1.03600
H 0.60800 0.50100 -4.89100
H -0.69200 -2.15600 -4.54700
H -1.26700 0.74000 -6.12900
H -2.20400 0.71400 -4.59600
H -1.96700 -0.72000 -5.45300
H 1.35600 -1.75900 -5.96700
H 1.45200 -3.15700 -4.90200
H 2.71400 -0.52200 -4.79800
H 3.48700 -2.12100 -4.52900
H 2.49500 -1.30300 -3.24000
H 0.86700 -6.33300 -0.08400
H 0.40400 -5.64200 -1.68000
H -0.89100 -5.99900 -0.46300
H -1.28300 -3.58100 4.02800
H 0.69800 -4.47800 7.75500
H 0.83300 -2.61900 7.68000
H 2.00000 -3.75400 6.97600
Mg 8.94057 0.80882 0.68588
C 8.74633 -1.58744 3.35032
C 7.68445 3.11186 2.86597
C 8.67526 2.82396 -1.75056
C 9.08162 -1.87582 -1.53190
N 8.33375 0.66075 2.80769
C 8.36255 -0.28554 3.73400
C 8.03436 0.20842 5.16852
C 7.18108 1.51343 4.78414
C 7.78977 1.80890 3.41488
C 5.69975 1.23040 4.59731
C 9.32322 0.58361 5.98098
C 9.10290 0.77773 7.48282
H 10.15967 0.36180 8.40081
N 8.74786 2.78395 0.66800
C 8.23827 3.56071 1.64689
C 8.29839 4.93986 1.13847
C 8.73236 4.89677 -0.28439
C 8.71488 3.46734 -0.52213
C 8.03839 6.13831 2.00423
C 9.08997 5.96592 -1.27191
O 9.20857 5.71446 -2.52313
C 9.20551 7.33340 -0.74451
N 8.67289 0.52466 -1.35617
C 8.64329 1.56982 -2.20157
C 8.71882 1.11147 -3.63844
C 9.05040 -0.45170 -3.57389
C 9.01966 -0.65390 -2.04302
C 7.45735 1.32980 -4.47354
C 10.29883 -0.93932 -4.35895
C 11.55533 -0.38807 -3.72435
N 9.10575 -1.33899 0.85218
C 9.12170 -2.27750 -0.20283
C 9.13149 -3.62156 0.41022
C 9.09702 -3.37005 1.79009
C 9.04743 -1.96862 2.02036
C 9.12003 -4.85778 -0.29529
C 9.08059 -3.97169 3.10404
O 9.19325 -5.11820 3.53596
C 8.72511 -2.84764 4.17012
C 9.70308 -2.96018 5.30741
O 10.91133 -2.72708 5.12741
O 9.02405 -3.11044 6.45923
C 9.95059 -3.21545 7.61782
H 7.08554 3.85191 3.39749
H 8.69499 3.47736 -2.62587
H 9.22433 -2.76216 -2.15375
H 7.42926 -0.47178 5.75585
H 7.37744 2.33081 5.47312
H 5.48328 0.17323 4.63816
H 5.44387 1.63171 3.62545
H 5.11259 1.80055 5.32292
H 9.63803 1.59813 5.70459
H 10.09900 -0.13950 5.82005
H 8.13249 0.38595 7.81109
H 9.04308 1.84911 7.68915
H 7.58062 5.85284 2.95940
H 7.26917 6.73483 1.50191
H 8.92770 6.75600 2.14658
H 8.26353 7.62429 -0.28568
H 9.55455 7.94098 -1.58171
H 9.95831 7.33887 0.05165
H 9.51806 1.61879 -4.16469
H 8.23211 -1.05921 -3.98760
H 7.63517 1.93418 -5.38303
H 6.70962 1.79714 -3.84661
H 6.95329 0.42006 -4.79526
H 10.27518 -0.55796 -5.38274
H 10.37617 -2.01976 -4.41946
H 11.63021 0.61462 -4.15572
H 12.41725 -0.99711 -3.98932
H 11.43119 -0.27256 -2.64134
H 9.83683 -5.50284 0.19522
H 9.36387 -4.71798 -1.34637
H 8.07767 -5.15465 -0.15169
H 7.69794 -3.01751 4.49514
H 9.70948 -4.14865 8.13617
H 9.82424 -2.27565 8.18752
H 11.00390 -3.35723 7.40597

