%nproc=24
%mem=175gb
#p cam-b3lyp/Def2SVP td=(nstates=5)

TDDFT excited states in gaussian

0 1
Mg 15.76240 1.41267 1.20487
C 14.14378 3.68933 3.45785
C 17.70026 0.42486 3.83233
C 17.50548 -0.27185 -0.84245
C 14.52709 3.34749 -1.41738
N 15.81950 2.04839 3.32262
C 15.11542 2.87710 4.07883
C 15.41720 2.77516 5.59807
C 16.90146 2.16870 5.50824
C 16.79884 1.47099 4.15349
C 17.98203 3.23327 5.41660
C 14.43995 1.79497 6.33714
C 14.47604 1.88123 7.86456
H 13.23069 1.68780 8.60224
N 17.01958 -0.08999 1.52126
C 17.70242 -0.35473 2.65480
C 18.50464 -1.55459 2.37030
C 18.36522 -1.88020 0.92488
C 17.62514 -0.72260 0.46409
C 19.23737 -2.31527 3.43702
C 18.83306 -3.03529 0.09236
O 18.80605 -2.99672 -1.18851
C 19.41041 -4.17566 0.81881
N 16.16413 1.63675 -0.82263
C 16.91025 0.73422 -1.48343
C 16.83444 0.95161 -2.97588
C 15.68520 2.04228 -3.19334
C 15.34185 2.34563 -1.71838
C 18.12289 1.43004 -3.64474
C 14.52877 1.66324 -4.15857
C 13.70543 0.54390 -3.56312
N 14.40689 3.08371 1.00926
C 14.04900 3.75713 -0.17923
C 13.19183 4.89657 0.20723
C 13.12882 4.81994 1.60675
C 13.90923 3.72300 2.06193
C 12.63242 5.85619 -0.68289
C 12.58821 5.42390 2.80327
O 11.78729 6.32896 3.03381
C 13.32387 4.79441 4.06380
C 12.27456 4.41586 5.07284
O 11.45003 3.51948 4.82130
O 12.55151 5.01821 6.24367
C 11.54471 4.66465 7.27961
H 18.51028 0.20593 4.52862
H 17.99879 -0.88533 -1.59992
H 14.02248 3.93992 -2.18358
H 15.43396 3.72304 6.12248
H 17.08035 1.44364 6.29796
H 17.56423 4.22307 5.30761
H 18.57594 2.97570 4.54944
H 18.65564 3.16156 6.27534
H 14.79336 0.76507 6.19872
H 13.43329 1.92800 5.99138
H 14.99390 2.78255 8.21439
H 15.08543 1.05756 8.24434
H 19.29188 -1.74482 4.37245
H 20.27930 -2.40109 3.11011
H 18.83236 -3.31737 3.59337
H 20.26250 -3.83733 1.40356
H 19.60366 -4.93735 0.06095
H 18.66712 -4.54845 1.53237
H 16.55331 0.03841 -3.48591
H 16.08341 2.97399 -3.62132
H 18.46592 0.76331 -4.45830
H 18.88667 1.52641 -2.88455
H 18.08187 2.43565 -4.05980
H 14.93114 1.28485 -5.10148
H 13.87569 2.49576 -4.39812
H 14.27362 -0.35117 -3.83352
H 12.70938 0.52632 -4.00085
H 13.68956 0.60617 -2.46880
H 11.60820 6.01070 -0.37050
H 12.68728 5.51955 -1.71606
H 13.29250 6.70671 -0.49269
H 14.01178 5.54693 4.45120
H 11.13598 5.60507 7.66201
H 12.07441 4.01511 8.00160
H 10.64345 4.16038 6.95113

