%nproc=24
%mem=175gb
#p cam-b3lyp/Def2SVP td=(nstates=5)

TDDFT excited states in gaussian

0 1
Mg 31.54045 2.83812 2.38829
C 31.18256 5.96417 0.66237
C 31.02393 1.29478 -0.60936
C 31.40168 0.07743 3.94610
C 30.89160 4.55755 5.34941
N 31.16390 3.63458 0.35947
C 31.11082 4.84011 -0.18663
C 31.05378 4.84157 -1.73785
C 30.43748 3.37497 -1.95720
C 30.93141 2.70802 -0.67506
C 28.91799 3.35372 -1.95185
C 32.47595 4.97016 -2.38816
C 32.47226 5.28828 -3.88500
H 33.52395 6.15125 -4.41576
N 31.74196 0.97821 1.72594
C 31.51205 0.53102 0.47357
C 31.78536 -0.91411 0.50587
C 32.03600 -1.31266 1.91763
C 31.70862 -0.07803 2.60217
C 31.86895 -1.75438 -0.73525
C 32.48254 -2.59675 2.54843
O 32.40461 -2.78836 3.81336
C 32.92634 -3.65759 1.63238
N 30.98928 2.34119 4.33035
C 31.07043 1.07272 4.76890
C 30.88831 1.00052 6.26623
C 30.90892 2.51650 6.77512
C 31.01463 3.23889 5.41411
C 29.60773 0.31943 6.74853
C 31.93756 2.87303 7.88303
C 33.34270 2.77143 7.33471
N 31.29497 4.90595 2.96436
C 31.00358 5.40348 4.25340
C 30.81728 6.86333 4.12477
C 30.99188 7.11260 2.75515
C 31.24756 5.89138 2.07490
C 30.48035 7.75529 5.18166
C 31.00751 8.12973 1.72854
O 30.93969 9.35818 1.72170
C 31.00640 7.41490 0.30889
C 32.06663 8.06330 -0.53847
O 33.26832 7.96131 -0.23490
O 31.50803 8.50906 -1.67849
C 32.52213 9.15047 -2.55713
H 30.64847 0.71064 -1.45001
H 31.44984 -0.83231 4.54904
H 30.78364 5.17823 6.24147
H 30.39743 5.58878 -2.16758
H 30.86956 2.89135 -2.82943
H 28.50259 4.31345 -1.68260
H 28.63685 2.60253 -1.22540
H 28.54259 2.99677 -2.91518
H 32.95160 3.98116 -2.40744
H 33.06947 5.69528 -1.86609
H 31.48769 5.62406 -4.23261
H 32.64988 4.36215 -4.43704
H 31.47640 -1.22064 -1.60957
H 31.18063 -2.59551 -0.59890
H 32.87331 -2.14480 -0.91274
H 32.11962 -3.90251 0.94558
H 33.29037 -4.46332 2.27282
H 33.75160 -3.27156 1.02366
H 31.70642 0.46305 6.72984
H 29.94457 2.81219 7.21378
H 29.79616 -0.53392 7.42704
H 29.04434 -0.00081 5.88218
H 28.89998 0.97290 7.25574
H 31.87258 2.15597 8.70507
H 31.79194 3.86154 8.30569
H 33.56466 1.70354 7.42101
H 34.03071 3.36704 7.93130
H 33.36900 3.02854 6.26941
H 31.10666 8.62943 5.06291
H 30.62479 7.29102 6.15499
H 29.42334 7.92766 4.96190
H 30.01016 7.53613 -0.11816
H 32.16210 10.16047 -2.77614
H 32.65063 8.46438 -3.41533
H 33.49510 9.36102 -2.12880

