%nproc=24
%mem=175gb
#p cam-b3lyp/Def2SVP td=(nstates=5)

TDDFT excited states in gaussian

0 1
Mg 0.00000 0.00000 0.00000
C -0.21700 -2.21800 2.80100
C -1.25500 2.44200 2.02600
C -0.24500 1.85000 -2.56400
C 0.14600 -2.82400 -2.03700
N -0.61700 -0.00900 2.12600
C -0.59400 -0.90800 3.10500
C -0.93600 -0.30900 4.50200
C -1.77300 0.96400 4.03200
C -1.15500 1.16800 2.66000
C -3.26300 0.68500 3.86300
C 0.34500 0.11000 5.29900
C 0.12400 0.39700 6.78700
H 1.16800 0.03300 7.73300
N -0.18500 1.96100 -0.15200
C -0.70300 2.80000 0.77700
C -0.62000 4.15600 0.19300
C -0.18700 4.01500 -1.22500
C -0.21400 2.58300 -1.38000
C -0.88700 5.40600 0.97400
C 0.18100 5.01300 -2.27700
O 0.30300 4.69000 -3.50800
C 0.31000 6.41400 -1.83700
N -0.26500 -0.41300 -2.02900
C -0.27900 0.56900 -2.93700
C -0.19600 0.02400 -4.33200
C 0.12400 -1.53300 -4.18000
C 0.08600 -1.63200 -2.63500
C -1.45100 0.20500 -5.19700
C 1.37300 -2.07000 -4.92300
C 2.62600 -1.49000 -4.30600
N 0.15000 -2.14400 0.30300
C 0.17300 -3.13600 -0.68800
C 0.17300 -4.43800 0.00400
C 0.13300 -4.11100 1.35800
C 0.08300 -2.69500 1.50200
C 0.14900 -5.71500 -0.62300
C 0.09600 -4.62900 2.71600
O 0.20800 -5.74700 3.22100
C -0.25500 -3.42800 3.70100
C 0.71700 -3.48200 4.84800
O 1.93100 -3.25500 4.66900
O 0.03800 -3.55600 6.00300
C 0.94300 -3.58300 7.18300
H -1.85900 3.22000 2.49700
H -0.21800 2.45300 -3.47400
H 0.27600 -3.74700 -2.60500
H -1.55400 -0.94900 5.13200
H -1.58500 1.83100 4.66500
H -3.48400 -0.37700 3.96900
H -3.51100 1.02700 2.85800
H -3.85200 1.30100 4.54300
H 0.66900 1.09600 4.96600
H 1.13000 -0.63900 5.18900
H -0.84400 0.02600 7.12500
H 0.06200 1.47700 6.92100
H -1.34400 5.18600 1.93800
H -1.65100 5.96300 0.43200
H 0.00700 6.02000 1.08400
H -0.63500 6.74400 -1.40500
H 0.66500 6.97000 -2.70400
H 1.04800 6.46600 -1.03600
H 0.60800 0.50100 -4.89100
H -0.69200 -2.15600 -4.54700
H -1.26700 0.74000 -6.12900
H -2.20400 0.71400 -4.59600
H -1.96700 -0.72000 -5.45300
H 1.35600 -1.75900 -5.96700
H 1.45200 -3.15700 -4.90200
H 2.71400 -0.52200 -4.79800
H 3.48700 -2.12100 -4.52900
H 2.49500 -1.30300 -3.24000
H 0.86700 -6.33300 -0.08400
H 0.40400 -5.64200 -1.68000
H -0.89100 -5.99900 -0.46300
H -1.28300 -3.58100 4.02800
H 0.69800 -4.47800 7.75500
H 0.83300 -2.61900 7.68000
H 2.00000 -3.75400 6.97600
Mg 8.93321 0.81304 0.68462
C 10.89596 -0.08991 3.55017
C 6.27314 1.13684 2.79503
C 7.08009 1.17084 -1.86594
C 11.39303 -0.66516 -1.29273
N 8.73549 0.53337 2.86979
C 9.56340 0.24959 3.86396
C 8.94816 0.41260 5.27975
C 7.40048 0.23097 4.89175
C 7.45702 0.69448 3.43758
C 6.94043 -1.21720 4.91391
C 9.22430 1.83075 5.89181
C 8.92268 1.95577 7.38685
H 9.77933 2.81418 8.20033
N 7.10887 1.57665 0.51960
C 6.16626 1.64767 1.48279
C 4.99434 2.27577 0.85331
C 5.26479 2.41950 -0.60302
C 6.51399 1.69307 -0.71210
C 3.80374 2.74596 1.63741
C 4.51575 3.08777 -1.71592
O 4.81454 2.88479 -2.94570
C 3.36304 3.91339 -1.32719
N 9.08862 0.14088 -1.27660
C 8.17225 0.48279 -2.19925
C 8.63495 0.11684 -3.58935
C 10.16392 -0.32446 -3.43096
C 10.30041 -0.21780 -1.89623
C 7.85185 -1.00035 -4.27856
C 11.20450 0.41183 -4.31851
C 11.31373 1.85850 -3.89356
N 10.89324 -0.03392 1.01473
C 11.74190 -0.62147 0.05106
C 12.91484 -1.15663 0.77233
C 12.65423 -0.86132 2.11894
C 11.39749 -0.20749 2.23131
C 14.00547 -1.85645 0.18335
C 13.15157 -0.96349 3.47206
O 14.20376 -1.34302 3.98449
C 11.97694 -0.58144 4.47239
C 12.52596 0.38475 5.48609
O 12.90489 1.51732 5.13922
O 12.31200 -0.10373 6.72139
C 12.82934 0.82454 7.76182
H 5.32746 1.04604 3.33012
H 6.53148 1.36593 -2.79030
H 12.24945 -1.05319 -1.84829
H 9.24406 -0.34659 5.99379
H 6.76624 0.89091 5.47792
H 7.76286 -1.89881 5.07251
H 6.48215 -1.39506 3.94986
H 6.14608 -1.34910 5.65415
H 8.49051 2.54237 5.49195
H 10.23376 2.13859 5.69985
H 8.79460 0.97692 7.86477
H 7.95088 2.44112 7.50540
H 3.81797 2.35631 2.66278
H 2.91974 2.28479 1.18384
H 3.68673 3.83154 1.61517
H 2.64773 3.30146 -0.78283
H 3.01212 4.37852 -2.25044
H 3.70623 4.68880 -0.63324
H 8.58286 0.97205 -4.25192
H 10.31073 -1.38414 -3.68661
H 7.42273 -0.69624 -5.25193
H 7.07223 -1.33505 -3.60721
H 8.41305 -1.91624 -4.45578
H 10.87613 0.41845 -5.36077
H 12.19017 -0.04078 -4.29428
H 10.47772 2.33299 -4.41608
H 12.26630 2.27950 -4.20886
H 11.13437 1.96725 -2.81761
H 14.90706 -1.46552 0.63590
H 14.01788 -1.73579 -0.89788
H 13.76274 -2.88053 0.47933
H 11.62706 -1.50516 4.93487
H 13.52310 0.25155 8.38477
H 11.93479 1.24426 8.25918
H 13.46316 1.64058 7.43501

