%nproc=24
%mem=175gb
#p cam-b3lyp/Def2SVP td=(nstates=5)

TDDFT excited states in gaussian

0 1
Mg 15.77257 1.42610 1.20294
C 15.42185 0.18908 4.55344
C 14.53616 4.39846 2.33031
C 15.64473 2.40331 -1.81304
C 15.88293 -1.89050 0.13820
N 15.10214 2.08592 3.20479
C 15.07255 1.54860 4.41506
C 14.72170 2.54477 5.55265
C 13.92485 3.63347 4.68166
C 14.58126 3.38868 3.32450
C 12.44045 3.33362 4.55529
C 15.99956 3.16563 6.21869
C 15.74429 3.90580 7.53350
H 16.76014 3.83580 8.58022
N 15.64850 3.25844 0.45081
C 15.13885 4.35285 1.05398
C 15.26051 5.44479 0.07570
C 15.73222 4.86947 -1.21318
C 15.67222 3.45413 -0.90774
C 15.01788 6.88369 0.42798
C 16.15378 5.48992 -2.51069
O 16.29847 4.79131 -3.57551
C 16.30155 6.95264 -2.52049
N 15.55228 0.41321 -0.59925
C 15.58221 1.07228 -1.77085
C 15.68194 0.11380 -2.93350
C 15.95762 -1.32161 -2.28453
C 15.87730 -0.94298 -0.78934
C 14.45248 0.03533 -3.83830
C 17.20993 -2.09180 -2.78573
C 18.46648 -1.37242 -2.35104
N 15.85907 -0.51121 2.15552
C 15.87212 -1.77329 1.52223
C 15.81858 -2.79548 2.58745
C 15.75435 -2.05111 3.77499
C 15.74660 -0.66308 3.47034
C 15.78426 -4.20436 2.38745
C 15.68063 -2.12401 5.21650
O 15.74171 -3.03186 6.04464
C 15.33446 -0.67811 5.77858
C 16.27591 -0.38352 6.91409
O 17.49601 -0.25970 6.70762
O 15.56028 -0.08268 8.01306
C 16.45002 0.22790 9.16360
H 13.94849 5.29536 2.52806
H 15.71130 2.68633 -2.86611
H 16.01233 -2.94679 -0.10712
H 14.07743 2.14309 6.32554
H 14.12994 4.64315 5.02783
H 12.18668 2.37136 4.97458
H 12.22570 3.35276 3.49484
H 11.85326 4.14416 4.99638
H 16.35666 3.99909 5.60016
H 16.75419 2.41761 6.36572
H 14.75221 3.68423 7.94536
H 15.71563 4.97861 7.32789
H 14.52412 6.98145 1.40268
H 14.28392 7.26884 -0.28815
H 15.92359 7.49082 0.36681
H 15.35772 7.41285 -2.23792
H 16.69448 7.20005 -3.50855
H 17.03161 7.23566 -1.75399
H 16.51251 0.37326 -3.57844
H 15.13076 -2.02112 -2.47641
H 14.67626 0.25676 -4.89894
H 13.70409 0.71737 -3.45715
H 13.92659 -0.91774 -3.82120
H 17.22794 -2.11541 -3.87810
H 17.25171 -3.11951 -2.44067
H 18.58779 -0.60203 -3.11842
H 19.31398 -2.05480 -2.33936
H 18.31626 -0.86216 -1.39254
H 16.46450 -4.63784 3.10848
H 16.06196 -4.46825 1.36911
H 14.72871 -4.40446 2.59002
H 14.29339 -0.69351 6.10342
H 16.16261 -0.44219 9.97973
H 16.34026 1.31421 9.34141
H 17.50333 -0.00494 9.05976

