%nproc=24
%mem=175gb
#p cam-b3lyp/Def2SVP td=(nstates=5)

TDDFT excited states in gaussian

0 1
Mg 0.00000 0.00000 0.00000
C -0.21700 -2.21800 2.80100
C -1.25500 2.44200 2.02600
C -0.24500 1.85000 -2.56400
C 0.14600 -2.82400 -2.03700
N -0.61700 -0.00900 2.12600
C -0.59400 -0.90800 3.10500
C -0.93600 -0.30900 4.50200
C -1.77300 0.96400 4.03200
C -1.15500 1.16800 2.66000
C -3.26300 0.68500 3.86300
C 0.34500 0.11000 5.29900
C 0.12400 0.39700 6.78700
H 1.16800 0.03300 7.73300
N -0.18500 1.96100 -0.15200
C -0.70300 2.80000 0.77700
C -0.62000 4.15600 0.19300
C -0.18700 4.01500 -1.22500
C -0.21400 2.58300 -1.38000
C -0.88700 5.40600 0.97400
C 0.18100 5.01300 -2.27700
O 0.30300 4.69000 -3.50800
C 0.31000 6.41400 -1.83700
N -0.26500 -0.41300 -2.02900
C -0.27900 0.56900 -2.93700
C -0.19600 0.02400 -4.33200
C 0.12400 -1.53300 -4.18000
C 0.08600 -1.63200 -2.63500
C -1.45100 0.20500 -5.19700
C 1.37300 -2.07000 -4.92300
C 2.62600 -1.49000 -4.30600
N 0.15000 -2.14400 0.30300
C 0.17300 -3.13600 -0.68800
C 0.17300 -4.43800 0.00400
C 0.13300 -4.11100 1.35800
C 0.08300 -2.69500 1.50200
C 0.14900 -5.71500 -0.62300
C 0.09600 -4.62900 2.71600
O 0.20800 -5.74700 3.22100
C -0.25500 -3.42800 3.70100
C 0.71700 -3.48200 4.84800
O 1.93100 -3.25500 4.66900
O 0.03800 -3.55600 6.00300
C 0.94300 -3.58300 7.18300
H -1.85900 3.22000 2.49700
H -0.21800 2.45300 -3.47400
H 0.27600 -3.74700 -2.60500
H -1.55400 -0.94900 5.13200
H -1.58500 1.83100 4.66500
H -3.48400 -0.37700 3.96900
H -3.51100 1.02700 2.85800
H -3.85200 1.30100 4.54300
H 0.66900 1.09600 4.96600
H 1.13000 -0.63900 5.18900
H -0.84400 0.02600 7.12500
H 0.06200 1.47700 6.92100
H -1.34400 5.18600 1.93800
H -1.65100 5.96300 0.43200
H 0.00700 6.02000 1.08400
H -0.63500 6.74400 -1.40500
H 0.66500 6.97000 -2.70400
H 1.04800 6.46600 -1.03600
H 0.60800 0.50100 -4.89100
H -0.69200 -2.15600 -4.54700
H -1.26700 0.74000 -6.12900
H -2.20400 0.71400 -4.59600
H -1.96700 -0.72000 -5.45300
H 1.35600 -1.75900 -5.96700
H 1.45200 -3.15700 -4.90200
H 2.71400 -0.52200 -4.79800
H 3.48700 -2.12100 -4.52900
H 2.49500 -1.30300 -3.24000
H 0.86700 -6.33300 -0.08400
H 0.40400 -5.64200 -1.68000
H -0.89100 -5.99900 -0.46300
H -1.28300 -3.58100 4.02800
H 0.69800 -4.47800 7.75500
H 0.83300 -2.61900 7.68000
H 2.00000 -3.75400 6.97600
Mg 15.77141 1.41439 1.20547
C 13.14748 1.06475 3.62864
C 17.48802 3.20907 3.54364
C 17.89613 2.12236 -1.04215
C 13.42660 0.61132 -1.24456
N 15.27704 1.99416 3.28194
C 14.27807 1.75209 4.11728
C 14.53755 2.20581 5.57891
C 15.63575 3.34056 5.28707
C 16.19927 2.80319 3.97316
C 15.03111 4.70952 5.02307
C 15.12455 1.05330 6.46725
C 15.11296 1.33167 7.97195
H 14.87000 0.21746 8.88408
N 17.63734 2.07161 1.36341
C 18.17215 2.76332 2.39142
C 19.56961 3.02716 2.01503
C 19.76984 2.57821 0.61037
C 18.40702 2.25195 0.24111
C 20.58209 3.57551 2.97817
C 20.98474 2.47352 -0.26099
O 20.89230 2.28331 -1.52515
C 22.28238 2.69331 0.39423
N 15.63385 1.58196 -0.86222
C 16.72028 1.84933 -1.60795
C 16.43587 1.64943 -3.07749
C 14.99642 0.95600 -3.14607
C 14.64352 0.95625 -1.64245
C 16.43140 2.91640 -3.93256
C 14.89637 -0.38205 -3.92856
C 15.66340 -1.46337 -3.20207
N 13.71747 0.74459 1.17829
C 12.91734 0.49285 0.04229
C 11.56003 0.17075 0.52849
C 11.65973 0.28082 1.92364
C 12.98040 0.66546 2.28053
C 10.43130 -0.12102 -0.28819
C 10.94529 0.16944 3.17499
O 9.82101 -0.20773 3.50281
C 11.84367 0.79523 4.32725
C 11.85393 -0.16757 5.48286
O 12.38189 -1.28766 5.36765
O 11.43555 0.47006 6.59135
C 11.43888 -0.44073 7.76705
H 18.01016 3.97335 4.11994
H 18.61836 2.24817 -1.85211
H 12.66430 0.25415 -1.94026
H 13.67961 2.63862 6.07930
H 16.40475 3.35283 6.05509
H 13.95395 4.66853 4.95844
H 15.45409 5.04181 4.08407
H 15.37272 5.42429 5.77721
H 16.20677 0.98578 6.29700
H 14.62415 0.12576 6.26750
H 14.47314 2.18479 8.22839
H 16.11447 1.64737 8.27417
H 20.10444 3.96368 3.88623
H 21.02669 4.45850 2.50645
H 21.37505 2.86065 3.20808
H 22.29647 3.68294 0.84466
H 23.03423 2.48886 -0.37049
H 22.38710 1.97316 1.21340
H 17.16647 0.98766 -3.52626
H 14.25666 1.60103 -3.64258
H 17.14687 2.87659 -4.77553
H 16.64541 3.76144 -3.29174
H 15.46452 3.18541 -4.35444
H 15.35993 -0.28067 -4.91293
H 13.87594 -0.71515 -4.08589
H 16.69281 -1.30257 -3.53606
H 15.30380 -2.44866 -3.49180
H 15.63958 -1.30219 -2.11805
H 9.92856 -0.96480 0.16545
H 10.72706 -0.33727 -1.31265
H 9.88439 0.82234 -0.20927
H 11.40533 1.75627 4.59896
H 10.42893 -0.42250 8.18818
H 12.26185 -0.08736 8.41637
H 11.57097 -1.50000 7.58008

