%nproc=24
%mem=175gb
#p cam-b3lyp/Def2SVP td=(nstates=5)

TDDFT excited states in gaussian

0 1
Mg 15.75916 1.42474 1.20342
C 17.82593 2.64540 3.87129
C 13.91768 -0.19745 3.57239
C 14.19697 -0.02580 -1.14666
C 18.37180 2.17490 -0.97765
N 15.94637 1.31554 3.40462
C 16.73367 1.87042 4.31380
C 16.28054 1.64437 5.78116
C 15.42387 0.30347 5.56442
C 15.03741 0.49447 4.09921
C 16.25266 -0.96519 5.67832
C 15.38645 2.81673 6.31798
C 15.16474 2.81504 7.83211
H 15.07963 4.09792 8.52453
N 14.00670 0.49341 1.20929
C 13.39744 -0.08749 2.26411
C 12.14231 -0.65118 1.74346
C 12.13832 -0.49912 0.26307
C 13.48581 -0.01277 0.04440
C 11.05967 -1.18717 2.63454
C 11.09860 -0.76168 -0.78395
O 11.39046 -0.78492 -2.03179
C 9.74787 -1.08304 -0.30048
N 16.29058 0.92057 -0.74228
C 15.40550 0.34191 -1.57277
C 15.92000 0.32493 -2.99241
C 17.23609 1.23345 -2.98330
C 17.30771 1.56005 -1.47546
C 16.25714 -1.05312 -3.56136
C 17.28686 2.40890 -3.99741
C 16.25680 3.45256 -3.62979
N 17.66923 2.42388 1.34979
C 18.61814 2.60522 0.31986
C 19.80614 3.23785 0.92886
C 19.47225 3.36064 2.28604
C 18.17623 2.82281 2.51094
C 21.01153 3.57122 0.24914
C 19.92572 3.81327 3.58149
O 20.90779 4.43097 3.99102
C 18.93083 3.25538 4.68844
C 18.57647 4.39083 5.60915
O 17.92590 5.36455 5.19052
O 18.87291 4.04129 6.87419
C 18.52897 5.13110 7.82594
H 13.41265 -0.92635 4.20686
H 13.65812 -0.41572 -2.01331
H 19.18944 2.52971 -1.60873
H 17.08602 1.46173 6.48231
H 14.53815 0.29448 6.19432
H 17.30710 -0.75075 5.76944
H 16.05746 -1.52627 4.77381
H 15.88424 -1.58346 6.50193
H 14.35431 2.66503 5.97679
H 15.77926 3.76663 6.01135
H 15.86112 2.14431 8.34992
H 14.17959 2.38951 8.03810
H 11.41497 -1.32020 3.66385
H 10.83635 -2.20299 2.29087
H 10.14571 -0.59088 2.59236
H 9.79183 -1.96475 0.33444
H 9.12557 -1.15007 -1.19497
H 9.39653 -0.25851 0.32987
H 15.19695 0.76056 -3.67103
H 18.13667 0.64850 -3.22126
H 15.70755 -1.28723 -4.49260
H 16.05174 -1.79561 -2.80171
H 17.31243 -1.22129 -3.76942
H 17.02791 2.05652 -4.99888
H 18.26178 2.88018 -4.06392
H 15.33778 3.05981 -4.07502
H 16.52071 4.41818 -4.05638
H 16.10661 3.49216 -2.54465
H 21.30022 4.55588 0.59204
H 20.87850 3.54851 -0.83048
H 21.66226 2.76560 0.59957
H 19.44350 2.44796 5.21268
H 19.43847 5.36242 8.38896
H 17.66015 4.76129 8.40225
H 18.28528 6.10160 7.40977

