%nproc=24
%mem=175gb
#p cam-b3lyp/Def2SVP td=(nstates=5)

TDDFT excited states in gaussian

0 1
Mg 7.89066 0.70362 0.60317
C 8.10471 -1.93755 -1.81705
C 7.04685 -1.67219 2.90059
C 7.25555 3.04677 2.64613
C 7.62302 2.93485 -2.06061
N 7.64127 -1.48819 0.44179
C 7.80901 -2.38957 -0.51410
C 7.73010 -3.86242 -0.03031
C 6.84434 -3.63480 1.28972
C 7.22231 -2.18597 1.59087
C 5.34850 -3.69374 1.02830
C 9.14105 -4.45306 0.31951
C 9.17524 -5.97210 0.50138
H 10.36311 -6.69913 0.06221
N 7.72684 0.67403 2.58076
C 7.39783 -0.38173 3.35431
C 7.39333 0.11892 4.73760
C 7.58514 1.59430 4.70309
C 7.50744 1.83692 3.27650
C 7.29795 -0.78720 5.93061
C 7.79012 2.61911 5.77731
O 7.69627 3.87459 5.53692
C 8.01154 2.10756 7.13774
N 7.28452 2.67525 0.34320
C 7.13084 3.49595 1.39713
C 6.96074 4.92900 0.95232
C 7.27530 4.93237 -0.61568
C 7.49538 3.41917 -0.83288
C 5.58181 5.54189 1.19581
C 8.36923 5.91712 -1.11190
C 9.72144 5.49516 -0.58382
N 8.04933 0.58361 -1.54822
C 7.87659 1.63392 -2.47617
C 7.96785 1.04139 -3.82635
C 8.16596 -0.32703 -3.58834
C 8.17587 -0.57318 -2.18876
C 7.82152 1.74481 -5.05514
C 8.35835 -1.62085 -4.20292
O 8.52399 -2.01925 -5.35513
C 8.20086 -2.73976 -3.08506
C 9.35180 -3.69844 -3.22204
O 10.51691 -3.32262 -3.00321
O 8.87063 -4.94563 -3.37488
C 9.97450 -5.93390 -3.50386
H 6.55517 -2.30129 3.64313
H 7.13978 3.90817 3.30799
H 7.64773 3.57859 -2.94245
H 7.22058 -4.53658 -0.70830
H 7.16408 -4.28805 2.09743
H 5.12619 -3.76169 -0.02626
H 4.94125 -2.78082 1.44276
H 4.89802 -4.51097 1.59885
H 9.42073 -4.13621 1.33249
H 9.86873 -4.16026 -0.41218
H 8.26686 -6.45354 0.11924
H 9.16622 -6.19379 1.57133
H 7.00041 -1.80276 5.64162
H 6.46509 -0.42386 6.54233
H 8.20757 -0.78506 6.53496
H 7.16290 1.49680 7.43648
H 8.22614 2.98627 7.74904
H 8.88573 1.44706 7.12518
H 7.66926 5.57641 1.45427
H 6.39094 5.20952 -1.20807
H 5.61556 6.46357 1.80691
H 4.95514 4.79617 1.66669
H 5.01807 5.78272 0.29614
H 8.18209 6.91987 -0.71995
H 8.41952 5.99797 -2.19261
H 9.73869 5.92520 0.42209
H 10.51852 5.90394 -1.20156
H 9.77999 4.40569 -0.47760
H 8.60001 1.38482 -5.71458
H 7.89007 2.82064 -4.90800
H 6.81303 1.43284 -5.33956
H 7.23925 -3.22911 -3.24453
H 9.80875 -6.47778 -4.43896
H 9.95808 -6.52391 -2.56826
H 10.97601 -5.54942 -3.65749

