%nproc=24
%mem=175gb
#p cam-b3lyp/Def2SVP td=(nstates=5)

TDDFT excited states in gaussian

0 1
Mg 31.53308 2.84747 2.40141
C 33.23465 1.55138 5.28305
C 28.93978 3.63524 4.47236
C 29.83071 3.58310 -0.17312
C 33.71059 0.96170 0.43977
N 31.24328 2.57897 4.57769
C 31.98348 2.13067 5.58042
C 31.38188 2.38626 6.98837
C 29.83556 2.50410 6.57137
C 30.00675 2.96931 5.12674
C 29.11172 1.16796 6.56029
C 31.90694 3.71847 7.62987
C 31.60465 3.87672 9.12162
H 32.59085 4.54732 9.96434
N 29.88794 3.94244 2.21935
C 28.95655 4.17559 3.16772
C 27.93589 5.02151 2.52988
C 28.25721 5.13250 1.08104
C 29.34991 4.18597 0.98011
C 26.83934 5.69581 3.30211
C 27.66894 5.94529 -0.03229
O 27.94859 5.70723 -1.26028
C 26.68408 6.96714 0.35158
N 31.59838 2.18594 0.43152
C 30.78081 2.70694 -0.50017
C 31.19404 2.28033 -1.88857
C 32.60967 1.55748 -1.71240
C 32.73340 1.61484 -0.17396
C 30.22907 1.34001 -2.61038
C 33.78720 2.09770 -2.56929
C 34.15740 3.49193 -2.11713
N 33.29257 1.64281 2.74930
C 34.03484 0.92002 1.78977
C 35.07212 0.16389 2.52104
C 34.84497 0.48379 3.86809
C 33.73118 1.36038 3.97091
C 36.02356 -0.71992 1.93815
C 35.28749 0.27085 5.22733
O 36.23950 -0.30680 5.75054
C 34.18583 0.85253 6.21444
C 34.88617 1.68392 7.25406
O 35.47757 2.72995 6.93361
O 34.56003 1.22687 8.47681
C 35.22164 2.02660 9.54195
H 27.98347 3.71611 4.98986
H 29.34679 3.89085 -1.10295
H 34.48983 0.42761 -0.10813
H 31.51597 1.57496 7.69377
H 29.32490 3.26305 7.15838
H 29.78843 0.34182 6.72059
H 28.64736 1.09303 5.58571
H 28.29227 1.17715 7.28468
H 31.32769 4.56086 7.23039
H 32.95982 3.83390 7.46030
H 31.28584 2.93269 9.58000
H 30.73897 4.53425 9.23242
H 26.75998 5.29593 4.32053
H 25.89368 5.41538 2.82573
H 26.92848 6.78425 3.29705
H 25.85608 6.49281 0.87301
H 26.44492 7.50294 -0.56907
H 27.15283 7.65437 1.06474
H 31.31636 3.13941 -2.53674
H 32.56016 0.49282 -1.98421
H 29.88392 1.73307 -3.58529
H 29.38741 1.14823 -1.95819
H 30.61193 0.33761 -2.79430
H 33.48657 2.18066 -3.61662
H 34.66982 1.46770 -2.53654
H 33.43571 4.12237 -2.64513
H 35.17807 3.73093 -2.40896
H 33.98040 3.61718 -1.04259
H 36.97335 -0.51176 2.41256
H 36.07974 -0.58843 0.85958
H 35.58728 -1.68427 2.21193
H 33.65984 0.00451 6.65463
H 35.78317 1.32472 10.16624
H 34.41203 2.59979 10.03159
H 36.00359 2.71360 9.24024

