%nproc=24
%mem=175gb
#p cam-b3lyp/Def2SVP td=(nstates=5)

TDDFT excited states in gaussian

0 1
Mg 8.92784 0.79933 0.68550
C 8.16803 3.45709 2.97418
C 10.25447 -0.89787 3.33016
C 10.01259 -1.35926 -1.37150
C 8.60210 3.11683 -1.89690
N 9.12630 1.31723 2.82668
C 8.74567 2.32863 3.59253
C 8.92496 2.08548 5.11513
C 10.08420 0.97627 5.04664
C 9.78875 0.39899 3.66385
C 11.48354 1.56859 5.02793
C 7.62557 1.51762 5.78681
C 7.62698 1.54721 7.31681
H 6.36818 1.80929 8.00905
N 9.52935 -1.06854 0.98185
C 10.01880 -1.59422 2.12438
C 10.33428 -2.99817 1.81850
C 10.14537 -3.21397 0.35820
C 9.90323 -1.85406 -0.08008
C 10.69033 -4.00139 2.87689
C 10.18963 -4.43952 -0.50335
O 10.23229 -4.36249 -1.78205
C 10.27585 -5.72981 0.19607
N 9.46823 0.90862 -1.31909
C 9.85676 -0.18922 -1.99120
C 9.92874 0.07712 -3.47588
C 9.27174 1.51997 -3.68588
C 9.00278 1.89260 -2.21136
C 11.32959 0.06222 -4.08725
C 8.09842 1.61830 -4.69896
C 6.89679 0.86785 -4.17142
N 8.29192 2.85699 0.51326
C 8.25701 3.64372 -0.65888
C 7.86400 5.00934 -0.25509
C 7.71875 4.92729 1.13798
C 8.02092 3.60899 1.57417
C 7.73476 6.12908 -1.12434
C 7.38884 5.65882 2.33995
O 6.96834 6.78972 2.58076
C 7.78781 4.77167 3.59701
C 6.63163 4.78278 4.55911
O 5.54637 4.26056 4.24910
O 7.06161 5.21161 5.75977
C 5.95299 5.22957 6.75096
H 10.89720 -1.41728 4.04149
H 10.27670 -2.09287 -2.13670
H 8.38345 3.87219 -2.65472
H 9.26744 2.94713 5.67551
H 9.95051 0.21738 5.81317
H 11.46429 2.64506 4.94427
H 11.97667 1.13118 4.16971
H 12.04694 1.23235 5.90305
H 7.58060 0.43372 5.61989
H 6.75393 2.02130 5.41645
H 8.42509 2.18485 7.71601
H 7.87401 0.54775 7.68298
H 10.91179 -3.51435 3.83456
H 11.64024 -4.45782 2.57821
H 9.93879 -4.78666 2.98280
H 11.16740 -5.74434 0.81847
H 10.20672 -6.49033 -0.58413
H 9.41840 -5.81913 0.87239
H 9.35285 -0.65505 -4.02848
H 10.00242 2.24898 -4.06599
H 11.43687 -0.66401 -4.91500
H 12.04273 -0.14877 -3.30147
H 11.67894 1.02172 -4.46476
H 8.37233 1.14121 -5.64316
H 7.80820 2.63870 -4.92604
H 7.10646 -0.16687 -4.45862
H 5.98342 1.22992 -4.63907
H 6.85922 0.90489 -3.07650
H 6.82719 6.64315 -0.83703
H 7.70503 5.82127 -2.16748
H 8.65296 6.67092 -0.88226
H 8.68754 5.20737 4.03316
H 5.90344 6.24484 7.15652
H 6.17577 4.41297 7.46319
H 4.94398 5.10184 6.37674

