%nproc=24
%mem=175gb
#p cam-b3lyp/Def2SVP td=(nstates=5)

TDDFT excited states in gaussian

0 1
Mg 13.14650 1.18167 0.99112
C 12.81365 4.19439 -0.93029
C 12.63887 -0.54506 -1.90635
C 12.98543 -1.47472 2.71886
C 12.48986 3.08721 3.83426
N 12.78510 1.85046 -1.08599
C 12.74103 3.01942 -1.70722
C 12.69255 2.92341 -3.25577
C 12.07020 1.44875 -3.38590
C 12.55373 0.86164 -2.06145
C 10.55062 1.43488 -3.38807
C 14.11892 3.00422 -3.90459
C 14.12507 3.22742 -5.41849
H 15.18394 4.05038 -5.99641
N 13.34242 -0.71718 0.44840
C 13.11721 -1.24132 -0.77465
C 13.38316 -2.68279 -0.64981
C 13.62403 -2.99275 0.78568
C 13.29901 -1.71595 1.38919
C 13.46943 -3.59995 -1.83505
C 14.06069 -4.23659 1.49868
O 13.97483 -4.34776 2.77269
C 14.50427 -5.35507 0.65386
N 12.58215 0.81063 2.95738
C 12.65459 -0.42805 3.47540
C 12.46385 -0.40493 4.97322
C 12.48917 1.13998 5.38575
C 12.60597 1.77470 3.98258
C 11.17726 -1.04838 5.49000
C 13.51344 1.56087 6.47498
C 14.92106 1.41845 5.94233
N 12.90811 3.28280 1.43438
C 12.61208 3.86189 2.68782
C 12.43374 5.31158 2.46643
C 12.61713 5.47326 1.08486
C 12.87050 4.21044 0.48437
C 12.09541 6.26989 3.46307
C 12.64348 6.42360 -0.00365
O 12.58179 7.64948 -0.08824
C 12.64666 5.62077 -1.37545
C 13.71475 6.20961 -2.25577
O 14.91422 6.12141 -1.93939
O 13.16468 6.58522 -3.42483
C 14.18678 7.16533 -4.33620
H 12.26517 -1.17927 -2.71071
H 13.02574 -2.34487 3.37816
H 12.38005 3.76335 4.68482
H 12.04231 3.64508 -3.73551
H 12.50469 0.90916 -4.22341
H 10.13851 2.41158 -3.18222
H 10.26175 0.73226 -2.61741
H 10.17877 1.01969 -4.32917
H 14.58975 2.01379 -3.85878
H 14.71314 3.75805 -3.42577
H 13.14411 3.54516 -5.79228
H 14.30113 2.26754 -5.91006
H 13.08436 -3.12055 -2.74351
H 12.77621 -4.42764 -1.65000
H 14.47280 -4.00541 -1.98174
H 13.70016 -5.63905 -0.02084
H 14.86076 -6.12052 1.34587
H 15.33479 -5.01196 0.02685
H 13.27670 -0.91589 5.47451
H 11.52389 1.46716 5.79929
H 11.35770 -1.85814 6.22198
H 10.61708 -1.41997 4.64226
H 10.46997 -0.36100 5.95092
H 13.44036 0.89732 7.34015
H 13.37039 2.57470 6.83369
H 15.13723 0.35711 6.09700
H 15.60872 2.04729 6.50422
H 14.95452 1.60781 4.86313
H 12.72670 7.13193 3.29315
H 12.23217 5.86720 4.46452
H 11.04050 6.43294 3.22674
H 11.65340 5.71944 -1.81508
H 13.83298 8.16117 -4.62047
H 14.31661 6.42595 -5.14874
H 15.15840 7.39796 -3.91633

