%nproc=24
%mem=175gb
#p cam-b3lyp/Def2SVP td=(nstates=5)

TDDFT excited states in gaussian

0 1
Mg 0.00000 0.00000 0.00000
C -0.21700 -2.21800 2.80100
C -1.25500 2.44200 2.02600
C -0.24500 1.85000 -2.56400
C 0.14600 -2.82400 -2.03700
N -0.61700 -0.00900 2.12600
C -0.59400 -0.90800 3.10500
C -0.93600 -0.30900 4.50200
C -1.77300 0.96400 4.03200
C -1.15500 1.16800 2.66000
C -3.26300 0.68500 3.86300
C 0.34500 0.11000 5.29900
C 0.12400 0.39700 6.78700
H 1.16800 0.03300 7.73300
N -0.18500 1.96100 -0.15200
C -0.70300 2.80000 0.77700
C -0.62000 4.15600 0.19300
C -0.18700 4.01500 -1.22500
C -0.21400 2.58300 -1.38000
C -0.88700 5.40600 0.97400
C 0.18100 5.01300 -2.27700
O 0.30300 4.69000 -3.50800
C 0.31000 6.41400 -1.83700
N -0.26500 -0.41300 -2.02900
C -0.27900 0.56900 -2.93700
C -0.19600 0.02400 -4.33200
C 0.12400 -1.53300 -4.18000
C 0.08600 -1.63200 -2.63500
C -1.45100 0.20500 -5.19700
C 1.37300 -2.07000 -4.92300
C 2.62600 -1.49000 -4.30600
N 0.15000 -2.14400 0.30300
C 0.17300 -3.13600 -0.68800
C 0.17300 -4.43800 0.00400
C 0.13300 -4.11100 1.35800
C 0.08300 -2.69500 1.50200
C 0.14900 -5.71500 -0.62300
C 0.09600 -4.62900 2.71600
O 0.20800 -5.74700 3.22100
C -0.25500 -3.42800 3.70100
C 0.71700 -3.48200 4.84800
O 1.93100 -3.25500 4.66900
O 0.03800 -3.55600 6.00300
C 0.94300 -3.58300 7.18300
H -1.85900 3.22000 2.49700
H -0.21800 2.45300 -3.47400
H 0.27600 -3.74700 -2.60500
H -1.55400 -0.94900 5.13200
H -1.58500 1.83100 4.66500
H -3.48400 -0.37700 3.96900
H -3.51100 1.02700 2.85800
H -3.85200 1.30100 4.54300
H 0.66900 1.09600 4.96600
H 1.13000 -0.63900 5.18900
H -0.84400 0.02600 7.12500
H 0.06200 1.47700 6.92100
H -1.34400 5.18600 1.93800
H -1.65100 5.96300 0.43200
H 0.00700 6.02000 1.08400
H -0.63500 6.74400 -1.40500
H 0.66500 6.97000 -2.70400
H 1.04800 6.46600 -1.03600
H 0.60800 0.50100 -4.89100
H -0.69200 -2.15600 -4.54700
H -1.26700 0.74000 -6.12900
H -2.20400 0.71400 -4.59600
H -1.96700 -0.72000 -5.45300
H 1.35600 -1.75900 -5.96700
H 1.45200 -3.15700 -4.90200
H 2.71400 -0.52200 -4.79800
H 3.48700 -2.12100 -4.52900
H 2.49500 -1.30300 -3.24000
H 0.86700 -6.33300 -0.08400
H 0.40400 -5.64200 -1.68000
H -0.89100 -5.99900 -0.46300
H -1.28300 -3.58100 4.02800
H 0.69800 -4.47800 7.75500
H 0.83300 -2.61900 7.68000
H 2.00000 -3.75400 6.97600
Mg 7.89015 0.70671 0.60620
C 8.04699 -2.82633 -0.00382
C 6.83405 -0.03643 3.76325
C 7.31056 3.79693 1.03283
C 7.84263 1.16060 -2.84886
N 7.52689 -1.22011 1.62976
C 7.67963 -2.49829 1.31787
C 7.50243 -3.47681 2.50978
C 6.58298 -2.55122 3.44614
C 7.02867 -1.17861 2.94615
C 5.09669 -2.70159 3.16746
C 8.86515 -3.82389 3.20587
C 8.80926 -5.00679 4.17509
H 9.97066 -5.88730 4.26637
N 7.65300 1.75010 2.27762
C 7.23856 1.28554 3.47500
C 7.21114 2.45168 4.37140
C 7.48476 3.67104 3.56330
C 7.47253 3.11002 2.22718
C 7.02275 2.33264 5.85590
C 7.70639 5.10692 3.93115
O 7.69040 6.03787 3.05029
C 7.84968 5.40193 5.36431
N 7.40301 2.24417 -0.70576
C 7.25630 3.50674 -0.26723
C 7.18143 4.47935 -1.41997
C 7.55263 3.63021 -2.72334
C 7.69710 2.23257 -2.08214
C 5.83026 5.16353 -1.62640
C 8.71632 4.16372 -3.60303
C 10.02319 4.05622 -2.85075
N 8.12030 -0.55608 -1.13175
C 8.03939 -0.16579 -2.48645
C 8.14714 -1.39385 -3.30051
C 8.26105 -2.42401 -2.35484
C 8.20642 -1.87869 -1.04369
C 8.08452 -1.45839 -4.72108
C 8.40440 -3.84987 -2.16753
O 8.58981 -4.80984 -2.91441
C 8.14511 -4.18696 -0.63602
C 9.24593 -5.09909 -0.16834
O 10.42116 -4.69581 -0.11527
O 8.70292 -6.21926 0.34228
C 9.75485 -7.15075 0.82971
H 6.28186 -0.15385 4.69609
H 7.21820 4.88185 1.12167
H 7.93476 1.22788 -3.93498
H 6.98172 -4.39596 2.26938
H 6.83673 -2.67558 4.49566
H 4.90955 -3.32026 2.30237
H 4.72532 -1.69859 3.00277
H 4.58154 -3.07114 4.05874
H 9.12469 -3.01942 3.90602
H 9.63399 -3.99027 2.47660
H 7.89037 -5.59375 4.05653
H 8.74911 -4.61769 5.19440
H 6.68066 1.32948 6.13881
H 6.18935 2.99009 6.12620
H 7.90849 2.63531 6.41851
H 6.95847 5.07072 5.89205
H 8.08976 6.46542 5.42117
H 8.68617 4.81536 5.76031
H 7.90565 5.27595 -1.30150
H 6.70699 3.56862 -3.42400
H 5.89224 6.26794 -1.60361
H 5.14686 4.80531 -0.86799
H 5.31375 4.89745 -2.54707
H 8.57034 5.22442 -3.82155
H 8.81033 3.64908 -4.55345
H 10.02734 4.95926 -2.23302
H 10.86349 4.04702 -3.54202
H 10.01794 3.19390 -2.17397
H 8.86559 -2.13724 -5.03664
H 8.20660 -0.47464 -5.16953
H 7.07146 -1.84732 -4.85418
H 7.16455 -4.65938 -0.56602
H 9.59370 -8.10764 0.32367
H 9.67200 -7.14406 1.93281
H 10.78089 -6.93620 0.55463

