%nproc=24
%mem=175gb
#p cam-b3lyp/Def2SVP td=(nstates=5)

TDDFT excited states in gaussian

0 1
Mg 0.00000 0.00000 0.00000
C -0.21700 -2.21800 2.80100
C -1.25500 2.44200 2.02600
C -0.24500 1.85000 -2.56400
C 0.14600 -2.82400 -2.03700
N -0.61700 -0.00900 2.12600
C -0.59400 -0.90800 3.10500
C -0.93600 -0.30900 4.50200
C -1.77300 0.96400 4.03200
C -1.15500 1.16800 2.66000
C -3.26300 0.68500 3.86300
C 0.34500 0.11000 5.29900
C 0.12400 0.39700 6.78700
H 1.16800 0.03300 7.73300
N -0.18500 1.96100 -0.15200
C -0.70300 2.80000 0.77700
C -0.62000 4.15600 0.19300
C -0.18700 4.01500 -1.22500
C -0.21400 2.58300 -1.38000
C -0.88700 5.40600 0.97400
C 0.18100 5.01300 -2.27700
O 0.30300 4.69000 -3.50800
C 0.31000 6.41400 -1.83700
N -0.26500 -0.41300 -2.02900
C -0.27900 0.56900 -2.93700
C -0.19600 0.02400 -4.33200
C 0.12400 -1.53300 -4.18000
C 0.08600 -1.63200 -2.63500
C -1.45100 0.20500 -5.19700
C 1.37300 -2.07000 -4.92300
C 2.62600 -1.49000 -4.30600
N 0.15000 -2.14400 0.30300
C 0.17300 -3.13600 -0.68800
C 0.17300 -4.43800 0.00400
C 0.13300 -4.11100 1.35800
C 0.08300 -2.69500 1.50200
C 0.14900 -5.71500 -0.62300
C 0.09600 -4.62900 2.71600
O 0.20800 -5.74700 3.22100
C -0.25500 -3.42800 3.70100
C 0.71700 -3.48200 4.84800
O 1.93100 -3.25500 4.66900
O 0.03800 -3.55600 6.00300
C 0.94300 -3.58300 7.18300
H -1.85900 3.22000 2.49700
H -0.21800 2.45300 -3.47400
H 0.27600 -3.74700 -2.60500
H -1.55400 -0.94900 5.13200
H -1.58500 1.83100 4.66500
H -3.48400 -0.37700 3.96900
H -3.51100 1.02700 2.85800
H -3.85200 1.30100 4.54300
H 0.66900 1.09600 4.96600
H 1.13000 -0.63900 5.18900
H -0.84400 0.02600 7.12500
H 0.06200 1.47700 6.92100
H -1.34400 5.18600 1.93800
H -1.65100 5.96300 0.43200
H 0.00700 6.02000 1.08400
H -0.63500 6.74400 -1.40500
H 0.66500 6.97000 -2.70400
H 1.04800 6.46600 -1.03600
H 0.60800 0.50100 -4.89100
H -0.69200 -2.15600 -4.54700
H -1.26700 0.74000 -6.12900
H -2.20400 0.71400 -4.59600
H -1.96700 -0.72000 -5.45300
H 1.35600 -1.75900 -5.96700
H 1.45200 -3.15700 -4.90200
H 2.71400 -0.52200 -4.79800
H 3.48700 -2.12100 -4.52900
H 2.49500 -1.30300 -3.24000
H 0.86700 -6.33300 -0.08400
H 0.40400 -5.64200 -1.68000
H -0.89100 -5.99900 -0.46300
H -1.28300 -3.58100 4.02800
H 0.69800 -4.47800 7.75500
H 0.83300 -2.61900 7.68000
H 2.00000 -3.75400 6.97600
Mg 8.94166 0.80781 0.67197
C 11.65877 -1.39866 1.46432
C 10.97491 3.39361 1.57428
C 6.43586 2.73721 0.41535
C 6.81566 -1.94124 0.93378
N 11.02706 0.86335 1.40701
C 11.98071 -0.03315 1.60988
C 13.37812 0.57145 1.91201
C 12.90568 1.99868 2.47652
C 11.56698 2.11755 1.75095
C 12.63946 1.99594 3.97266
C 14.25446 0.72636 0.61970
C 15.73422 1.01899 0.87742
H 16.72520 0.44642 -0.02955
N 8.85459 2.78112 0.47949
C 9.77831 3.67940 0.88087
C 9.23425 5.00029 0.52955
C 7.84159 4.81823 0.03756
C 7.64513 3.40998 0.31742
C 10.04760 6.26007 0.59918
C 6.84622 5.75913 -0.57084
O 5.61217 5.43969 -0.70462
C 7.33934 7.09955 -0.91958
N 6.89649 0.49822 0.88127
C 6.02062 1.49509 0.66441
C 4.60481 0.97349 0.60287
C 4.73465 -0.62035 0.58241
C 6.26624 -0.75142 0.73222
C 3.69015 1.39460 1.75285
C 4.03981 -1.36809 -0.58838
C 4.73161 -1.04145 -1.89227
N 9.18023 -1.32368 0.93252
C 8.15594 -2.28956 1.04197
C 8.80753 -3.58515 1.32356
C 10.17497 -3.27655 1.38168
C 10.36079 -1.88327 1.17253
C 8.13905 -4.82381 1.53564
C 11.50264 -3.81083 1.58295
O 11.97384 -4.93953 1.71613
C 12.51237 -2.59779 1.77104
C 13.70860 -2.84897 0.89442
O 13.59403 -2.85786 -0.34389
O 14.82191 -2.82073 1.64948
C 16.03611 -3.05386 0.82293
H 11.44801 4.25496 2.04664
H 5.54454 3.33922 0.22402
H 6.22958 -2.86275 0.93184
H 13.94807 0.04317 2.66689
H 13.58091 2.79061 2.16304
H 12.69826 1.00192 4.39052
H 11.64278 2.39936 4.09485
H 13.31188 2.69619 4.47648
H 13.96772 1.65036 0.10128
H 14.16116 -0.13723 -0.00969
H 16.01553 0.83286 1.92106
H 15.90521 2.08953 0.74060
H 10.98180 6.10563 1.15309
H 9.48319 6.97163 1.21154
H 10.22444 6.70212 -0.38366
H 7.73264 7.58282 -0.02838
H 6.50697 7.59537 -1.42276
H 8.17836 6.99335 -1.61627
H 4.11240 1.29764 -0.30573
H 4.29095 -1.07685 1.47940
H 2.77555 1.91703 1.41424
H 4.25757 2.02065 2.42859
H 3.36577 0.58546 2.40498
H 3.00570 -1.03058 -0.69265
H 4.01563 -2.44500 -0.45929
H 4.27631 -0.08953 -2.18149
H 4.53628 -1.81375 -2.63351
H 5.80147 -0.86105 -1.73575
H 8.68997 -5.57347 0.98338
H 7.10069 -4.77532 1.21435
H 8.22904 -4.91054 2.62176
H 12.78057 -2.55557 2.82738
H 16.56628 -3.90244 1.26623
H 16.56956 -2.08513 0.79579
H 15.89151 -3.40220 -0.19305

