%nproc=24
%mem=175gb
#p cam-b3lyp/Def2SVP td=(nstates=5)

TDDFT excited states in gaussian

0 1
Mg 10.50068 0.94890 0.79703
C 9.32431 -1.87166 -1.08435
C 9.59770 2.90169 -1.84983
C 11.93358 3.38754 2.23485
C 12.31667 -1.29046 2.75487
N 9.58786 0.46161 -1.15785
C 9.12782 -0.63698 -1.73733
C 8.34591 -0.38980 -3.05532
C 8.99635 1.02168 -3.45970
C 9.39040 1.51646 -2.06952
C 10.25923 0.88543 -4.29391
C 6.80000 -0.26306 -2.81840
C 5.94732 -0.32999 -4.08734
H 4.64236 -0.98144 -4.01546
N 10.30750 2.90300 0.50933
C 9.90715 3.52353 -0.62024
C 9.95276 4.96413 -0.32568
C 10.56996 5.14931 1.01577
C 10.98910 3.79208 1.30272
C 9.36839 6.00069 -1.24082
C 10.76379 6.35153 1.88943
O 11.53778 6.32399 2.91071
C 10.09411 7.58821 1.46087
N 12.08146 1.06117 2.14271
C 12.47191 2.24205 2.65361
C 13.43521 2.04852 3.80034
C 13.42328 0.47987 4.11140
C 12.48158 0.00528 2.98297
C 14.87151 2.50595 3.54702
C 13.10203 0.05409 5.57023
C 11.66521 0.38818 5.90086
N 10.64753 -1.19955 0.97209
C 11.48962 -1.92908 1.83969
C 11.31802 -3.35937 1.51218
C 10.39801 -3.36129 0.45290
C 10.03808 -2.02529 0.12878
C 12.00431 -4.44247 2.13027
C 9.65759 -4.18915 -0.47182
O 9.49382 -5.40021 -0.61414
C 9.02579 -3.25508 -1.59196
C 7.58237 -3.64320 -1.76057
O 6.76899 -3.46939 -0.83602
O 7.35665 -3.95093 -3.05082
C 5.93589 -4.33182 -3.27032
H 9.56176 3.57409 -2.70743
H 12.37600 4.18610 2.83487
H 12.77332 -2.05684 3.38479
H 8.52747 -1.11986 -3.83495
H 8.25820 1.68365 -3.90498
H 10.57764 -0.14303 -4.37783
H 11.01200 1.47432 -3.78638
H 10.11772 1.35505 -5.27154
H 6.57049 0.75930 -2.49152
H 6.46063 -0.99909 -2.11575
H 6.51652 -0.70361 -4.94720
H 5.66850 0.68744 -4.37213
H 9.13187 5.58012 -2.22600
H 10.15835 6.73277 -1.44055
H 8.51189 6.51610 -0.80102
H 10.43723 7.85822 0.46497
H 10.27711 8.31106 2.25829
H 9.01863 7.39418 1.38136
H 13.10110 2.58388 4.68061
H 14.40292 0.01866 3.91794
H 15.22841 3.25122 4.28273
H 14.93078 2.90434 2.54287
H 15.61267 1.70888 3.52345
H 13.72116 0.61605 6.27381
H 13.27430 -1.00003 5.76040
H 11.71574 1.44452 6.18135
H 11.31032 -0.22330 6.72801
H 11.02904 0.31340 5.01128
H 11.26921 -5.21620 2.30764
H 12.48663 -4.13180 3.05472
H 12.73046 -4.68420 1.34954
H 9.59996 -3.40638 -2.50685
H 5.93880 -5.32379 -3.73255
H 5.49185 -3.50471 -3.85553
H 5.32327 -4.50861 -2.39403

