%nproc=24
%mem=175gb
#p cam-b3lyp/Def2SVP td=(nstates=5)

TDDFT excited states in gaussian

0 1
Mg 10.51866 0.93928 0.80001
C 10.69635 -0.61469 -2.42995
C 9.81586 -2.14363 2.07923
C 9.91223 2.34099 3.58117
C 10.10010 3.98469 -0.84193
N 10.31081 -1.04587 -0.15301
C 10.46102 -1.52506 -1.37863
C 10.43280 -3.07431 -1.47145
C 9.59392 -3.37993 -0.13663
C 9.95173 -2.13206 0.66802
C 8.09074 -3.38977 -0.35954
C 11.86867 -3.70339 -1.40416
C 11.94277 -5.18036 -1.79762
H 13.12829 -5.65297 -2.50731
N 10.43198 0.17717 2.63038
C 10.15603 -1.10005 2.96780
C 10.19408 -1.14504 4.43773
C 10.35238 0.24481 4.94563
C 10.21443 0.99341 3.71247
C 10.16448 -2.42983 5.21353
C 10.57641 0.80786 6.31639
O 10.44615 2.05952 6.55975
C 10.86121 -0.16121 7.38469
N 9.86034 2.84579 1.30415
C 9.72970 3.21438 2.59062
C 9.51153 4.70370 2.71188
C 9.76519 5.29567 1.24804
C 10.00947 3.97763 0.48091
C 8.13006 5.13586 3.20297
C 10.81755 6.43099 1.12064
C 12.19797 5.89087 1.41748
N 10.59675 1.62631 -1.24692
C 10.36558 2.93812 -1.71577
C 10.41749 2.88855 -3.19133
C 10.65426 1.53644 -3.48155
C 10.72351 0.79220 -2.27291
C 10.20863 3.98991 -4.06854
C 10.85078 0.56773 -4.53591
O 10.98043 0.62807 -5.75791
C 10.76085 -0.88917 -3.90681
C 11.92616 -1.68964 -4.42044
O 13.09043 -1.38110 -4.11075
O 11.46660 -2.80841 -5.00994
C 12.58583 -3.64093 -5.52574
H 9.36696 -3.01866 2.55007
H 9.80345 2.89322 4.51749
H 10.07680 4.90861 -1.42373
H 9.91222 -3.46816 -2.33612
H 9.95868 -4.27351 0.36320
H 7.82941 -3.07180 -1.35791
H 7.68009 -2.70851 0.37415
H 7.68044 -4.37475 -0.11911
H 12.18030 -3.77285 -0.35401
H 12.56105 -3.13664 -1.99580
H 11.03098 -5.51796 -2.30517
H 11.97987 -5.78101 -0.88556
H 9.87809 -3.27693 4.57807
H 9.34817 -2.34646 5.93917
H 11.09649 -2.61934 5.75028
H 10.03817 -0.86788 7.46005
H 11.08015 0.43710 8.27123
H 11.74838 -0.74007 7.10455
H 10.22470 5.14446 3.39762
H 8.85282 5.74107 0.82492
H 8.16739 5.76794 4.11026
H 7.53835 4.24799 3.38216
H 7.52694 5.67182 2.47209
H 10.62398 7.21157 1.86050
H 10.82433 6.90621 0.14539
H 12.24470 5.92014 2.51020
H 12.96156 6.52574 0.97261
H 12.28417 4.84168 1.11184
H 10.96870 3.92537 -4.83575
H 10.25947 4.93741 -3.53617
H 9.19691 3.77026 -4.41990
H 9.80464 -1.31803 -4.20900
H 12.39595 -3.80717 -6.59064
H 12.61834 -4.53448 -4.87439
H 13.57210 -3.19269 -5.55423

