%nproc=24
%mem=175gb
#p cam-b3lyp/Def2SVP td=(nstates=5)

TDDFT excited states in gaussian

0 1
Mg 0.00000 0.00000 0.00000
C -0.21700 -2.21800 2.80100
C -1.25500 2.44200 2.02600
C -0.24500 1.85000 -2.56400
C 0.14600 -2.82400 -2.03700
N -0.61700 -0.00900 2.12600
C -0.59400 -0.90800 3.10500
C -0.93600 -0.30900 4.50200
C -1.77300 0.96400 4.03200
C -1.15500 1.16800 2.66000
C -3.26300 0.68500 3.86300
C 0.34500 0.11000 5.29900
C 0.12400 0.39700 6.78700
H 1.16800 0.03300 7.73300
N -0.18500 1.96100 -0.15200
C -0.70300 2.80000 0.77700
C -0.62000 4.15600 0.19300
C -0.18700 4.01500 -1.22500
C -0.21400 2.58300 -1.38000
C -0.88700 5.40600 0.97400
C 0.18100 5.01300 -2.27700
O 0.30300 4.69000 -3.50800
C 0.31000 6.41400 -1.83700
N -0.26500 -0.41300 -2.02900
C -0.27900 0.56900 -2.93700
C -0.19600 0.02400 -4.33200
C 0.12400 -1.53300 -4.18000
C 0.08600 -1.63200 -2.63500
C -1.45100 0.20500 -5.19700
C 1.37300 -2.07000 -4.92300
C 2.62600 -1.49000 -4.30600
N 0.15000 -2.14400 0.30300
C 0.17300 -3.13600 -0.68800
C 0.17300 -4.43800 0.00400
C 0.13300 -4.11100 1.35800
C 0.08300 -2.69500 1.50200
C 0.14900 -5.71500 -0.62300
C 0.09600 -4.62900 2.71600
O 0.20800 -5.74700 3.22100
C -0.25500 -3.42800 3.70100
C 0.71700 -3.48200 4.84800
O 1.93100 -3.25500 4.66900
O 0.03800 -3.55600 6.00300
C 0.94300 -3.58300 7.18300
H -1.85900 3.22000 2.49700
H -0.21800 2.45300 -3.47400
H 0.27600 -3.74700 -2.60500
H -1.55400 -0.94900 5.13200
H -1.58500 1.83100 4.66500
H -3.48400 -0.37700 3.96900
H -3.51100 1.02700 2.85800
H -3.85200 1.30100 4.54300
H 0.66900 1.09600 4.96600
H 1.13000 -0.63900 5.18900
H -0.84400 0.02600 7.12500
H 0.06200 1.47700 6.92100
H -1.34400 5.18600 1.93800
H -1.65100 5.96300 0.43200
H 0.00700 6.02000 1.08400
H -0.63500 6.74400 -1.40500
H 0.66500 6.97000 -2.70400
H 1.04800 6.46600 -1.03600
H 0.60800 0.50100 -4.89100
H -0.69200 -2.15600 -4.54700
H -1.26700 0.74000 -6.12900
H -2.20400 0.71400 -4.59600
H -1.96700 -0.72000 -5.45300
H 1.35600 -1.75900 -5.96700
H 1.45200 -3.15700 -4.90200
H 2.71400 -0.52200 -4.79800
H 3.48700 -2.12100 -4.52900
H 2.49500 -1.30300 -3.24000
H 0.86700 -6.33300 -0.08400
H 0.40400 -5.64200 -1.68000
H -0.89100 -5.99900 -0.46300
H -1.28300 -3.58100 4.02800
H 0.69800 -4.47800 7.75500
H 0.83300 -2.61900 7.68000
H 2.00000 -3.75400 6.97600
Mg 31.53901 2.84712 2.39656
C 30.99905 3.61683 5.85995
C 30.42733 5.99092 1.67875
C 31.57500 2.05125 -0.67472
C 31.50591 -0.52297 3.28375
N 30.83329 4.49792 3.68848
C 30.73017 4.69713 4.99387
C 30.39329 6.15781 5.39696
C 29.68967 6.62774 4.03206
C 30.38069 5.67383 3.05983
C 28.19664 6.34674 3.99691
C 31.67818 7.00512 5.70214
C 31.41617 8.34292 6.39742
H 32.38782 8.81996 7.37762
N 31.54318 3.98957 0.77380
C 31.07272 5.24974 0.66462
C 31.28971 5.64016 -0.73704
C 31.77579 4.44944 -1.48578
C 31.62710 3.42291 -0.47374
C 31.11373 7.04848 -1.22603
C 32.27777 4.26287 -2.88557
O 32.42261 3.09754 -3.39924
C 32.50585 5.48603 -3.66873
N 31.32929 1.03004 1.40833
C 31.43803 0.95420 0.07029
C 31.52731 -0.48151 -0.38923
C 31.69996 -1.34909 0.94309
C 31.58610 -0.22353 1.99454
C 30.32918 -1.00159 -1.18321
C 32.92554 -2.30106 1.00914
C 34.20300 -1.49464 1.06542
N 31.48428 1.72507 4.24211
C 31.45111 0.32067 4.38586
C 31.30277 0.03397 5.82747
C 31.23626 1.30174 6.42482
C 31.31580 2.30749 5.42400
C 31.19849 -1.25972 6.41194
C 31.10616 2.01782 7.67343
O 31.08709 1.69684 8.86101
C 30.81961 3.54766 7.35113
C 31.73380 4.38163 8.20626
O 32.96557 4.34231 8.03953
O 30.99618 5.24544 8.92746
C 31.85911 6.10235 9.78355
H 29.88296 6.86865 1.32928
H 31.69534 1.72138 -1.70921
H 31.58600 -1.54836 3.65097
H 29.70021 6.25240 6.22428
H 29.93712 7.65919 3.79490
H 27.87534 5.76837 4.85036
H 28.02206 5.79809 3.08065
H 27.63914 7.28262 3.89867
H 32.10279 7.36503 4.75613
H 32.38476 6.43386 6.27225
H 30.39907 8.40430 6.80324
H 31.45395 9.13692 5.64766
H 30.59088 7.66841 -0.48730
H 30.42860 7.00729 -2.07971
H 32.05302 7.50292 -1.54832
H 31.57903 6.05098 -3.73422
H 32.94751 5.15242 -4.60974
H 33.22193 6.11737 -3.13090
H 32.39382 -0.63205 -1.02137
H 30.84350 -2.01961 1.10653
H 30.60329 -1.39163 -2.18161
H 29.60596 -0.20192 -1.27278
H 29.75151 -1.78134 -0.68978
H 32.98203 -2.90913 0.10293
H 32.89825 -2.98240 1.85296
H 34.39430 -1.26166 0.01365
H 35.01078 -2.08590 1.49196
H 34.04618 -0.54505 1.59015
H 31.82719 -1.25518 7.29240
H 31.49822 -2.03733 5.71247
H 30.12687 -1.29115 6.62618
H 29.76812 3.73723 7.57025
H 31.50580 5.98454 10.81262
H 31.80272 7.11619 9.34457
H 32.90113 5.82220 9.88432

