%nproc=24
%mem=175gb
#p cam-b3lyp/Def2SVP td=(nstates=5)

TDDFT excited states in gaussian

0 1
Mg 8.94232 0.79850 0.67509
C 8.92026 1.67432 -2.80507
C 8.42316 -2.43219 -0.28811
C 8.50756 0.06186 3.73055
C 8.31754 4.15371 1.38074
N 8.71868 -0.13344 -1.31833
C 8.78978 0.28945 -2.57150
C 8.79762 -0.84308 -3.63304
C 8.07001 -1.98589 -2.77081
C 8.45244 -1.51524 -1.36906
C 6.55520 -1.95561 -2.88812
C 10.25139 -1.26955 -4.04134
C 10.33668 -2.14805 -5.29143
H 11.47827 -1.97693 -6.18582
N 9.01432 -0.95831 1.59542
C 8.79996 -2.17308 1.04802
C 8.94938 -3.14105 2.14569
C 9.10674 -2.38622 3.41856
C 8.85600 -1.03565 2.95684
C 9.01367 -4.62373 1.92000
C 9.41725 -2.81122 4.82182
O 9.27097 -2.01405 5.81478
C 9.80813 -4.21595 5.01007
N 8.27107 1.89591 2.30833
C 8.22712 1.35068 3.53664
C 7.97746 2.40203 4.59150
C 8.10411 3.80634 3.83688
C 8.32661 3.29963 2.39496
C 6.62527 2.32547 5.30009
C 9.11208 4.83220 4.42364
C 10.52530 4.32402 4.25063
N 8.84759 2.63497 -0.45912
C 8.54564 3.92488 0.02982
C 8.48809 4.83004 -1.13629
C 8.73982 3.99294 -2.23373
C 8.92012 2.65657 -1.78529
C 8.18357 6.21993 -1.09627
C 8.88348 3.93408 -3.67060
O 8.91939 4.76756 -4.57490
C 8.88140 2.40847 -4.11660
C 10.02665 2.20157 -5.06955
O 11.20186 2.32194 -4.68096
O 9.55536 1.68601 -6.21953
C 10.65540 1.45269 -7.19282
H 8.03527 -3.43506 -0.46884
H 8.45405 -0.11786 4.80680
H 8.22506 5.23208 1.52648
H 8.22478 -0.63097 -4.52782
H 8.49587 -2.96510 -2.97367
H 6.21101 -1.09378 -3.44032
H 6.18201 -1.92812 -1.87273
H 6.19155 -2.89352 -3.31757
H 10.64270 -1.97004 -3.29238
H 10.88146 -0.40963 -4.16031
H 9.39909 -2.14726 -5.86053
H 10.45871 -3.18753 -4.97740
H 8.70403 -4.88941 0.90170
H 8.25209 -5.07834 2.56280
H 9.98821 -5.04650 2.17339
H 9.01297 -4.86362 4.64855
H 10.07627 -4.30588 6.06453
H 10.68749 -4.42062 4.38922
H 8.72756 2.35321 5.37129
H 7.15058 4.35462 3.83367
H 6.71300 2.23568 6.39932
H 6.07350 1.48857 4.89304
H 5.95440 3.16069 5.10631
H 8.95298 4.94707 5.49865
H 9.03251 5.81863 3.97909
H 10.65303 3.65389 5.10602
H 11.23549 5.14773 4.28504
H 10.61739 3.71893 3.34121
H 8.88547 6.71157 -1.75668
H 8.24792 6.61204 -0.08342
H 7.15483 6.20492 -1.46605
H 7.91748 2.20534 -4.58475
H 10.39086 1.99001 -8.10879
H 10.76142 0.35400 -7.26611
H 11.62394 1.88336 -6.96722

