%nproc=24
%mem=175gb
#p cam-b3lyp/Def2SVP td=(nstates=5)

TDDFT excited states in gaussian

0 1
Mg 31.53552 2.84675 2.40169
C 32.65346 1.02570 5.28493
C 29.24333 4.35474 4.42812
C 30.23309 4.12872 -0.19208
C 33.08944 0.42156 0.43967
N 31.10257 2.63467 4.56035
C 31.63317 1.95767 5.56756
C 31.09217 2.35685 6.96668
C 29.67321 2.95697 6.51358
C 30.02917 3.37709 5.08899
C 28.57268 1.91146 6.44233
C 31.98097 3.44671 7.66257
C 31.69148 3.65882 9.15017
H 32.80718 3.97258 10.03855
N 30.31660 4.40125 2.21105
C 29.47096 4.89114 3.14173
C 28.78419 6.02517 2.50416
C 29.17351 6.06217 1.06827
C 29.92296 4.82603 0.96642
C 27.92396 6.98936 3.26822
C 28.90374 7.04092 -0.03421
O 29.13802 6.75432 -1.26133
C 28.27038 8.30918 0.35547
N 31.46060 2.23994 0.41460
C 30.87649 3.00849 -0.52139
C 31.18494 2.50471 -1.91115
C 32.30096 1.37517 -1.72083
C 32.38358 1.35836 -0.17866
C 30.00192 1.92539 -2.68655
C 33.61642 1.54215 -2.52974
C 34.38369 2.74301 -2.02514
N 32.82355 1.14899 2.75758
C 33.33850 0.25252 1.79568
C 34.06561 -0.80331 2.52981
C 33.90245 -0.45774 3.87979
C 33.11129 0.71843 3.98081
C 34.71669 -1.92574 1.94468
C 34.21067 -0.82642 5.24280
O 34.91902 -1.68171 5.77236
C 33.30959 0.04670 6.21856
C 34.19656 0.59766 7.30126
O 35.09291 1.41556 7.02883
O 33.70345 0.23806 8.50038
C 34.54294 0.77038 9.60660
H 28.34170 4.71686 4.92290
H 29.90012 4.59114 -1.12417
H 33.68375 -0.31583 -0.10413
H 30.94470 1.52901 7.64984
H 29.40233 3.82404 7.11039
H 28.95502 0.91305 6.59444
H 28.14157 2.00503 5.45419
H 27.77188 2.15859 7.14517
H 31.70447 4.43549 7.27450
H 33.02313 3.23380 7.52401
H 31.08101 2.85044 9.57064
H 31.06814 4.54970 9.25881
H 27.69006 6.61201 4.27136
H 26.95482 7.02605 2.75902
H 28.34525 7.99645 3.29921
H 27.31897 8.10371 0.84031
H 28.24021 8.91233 -0.55402
H 28.90386 8.80187 1.10151
H 31.58892 3.29728 -2.52900
H 31.93415 0.38434 -2.02669
H 29.82875 2.42688 -3.65742
H 29.12037 1.98993 -2.06265
H 30.06229 0.85789 -2.89145
H 33.39220 1.73662 -3.58144
H 34.25945 0.66911 -2.49365
H 33.91070 3.57722 -2.55188
H 35.43761 2.66016 -2.28286
H 34.21737 2.89387 -0.95218
H 35.66748 -2.03236 2.44978
H 34.84767 -1.79503 0.87252
H 33.99461 -2.71306 2.17704
H 32.53250 -0.60582 6.61847
H 34.83833 -0.08417 10.22318
H 33.93386 1.55560 10.09261
H 35.50879 1.18756 9.34670

