%nproc=24
%mem=175gb
#p cam-b3lyp/Def2SVP td=(nstates=5)

TDDFT excited states in gaussian

0 1
Mg 8.93890 0.81117 0.68529
C 9.49061 -1.28281 3.54710
C 7.04040 2.80627 2.69771
C 8.06665 2.42397 -1.90420
C 9.89267 -1.88909 -1.30083
N 8.40891 0.67484 2.82837
C 8.72708 -0.13113 3.83012
C 8.26500 0.36504 5.22650
C 7.05272 1.30808 4.75756
C 7.54020 1.65180 3.35154
C 5.72898 0.57147 4.63737
C 9.37799 1.18612 5.96751
C 9.11049 1.43685 7.45322
H 10.24487 1.44642 8.37276
N 8.15070 2.62367 0.50606
C 7.42884 3.29209 1.42986
C 7.06325 4.57285 0.80524
C 7.48800 4.53750 -0.62062
C 7.90875 3.15557 -0.73614
C 6.44977 5.70713 1.57366
C 7.49999 5.57232 -1.70468
O 7.68850 5.25853 -2.93303
C 7.19188 6.95120 -1.29820
N 8.76881 0.27815 -1.31704
C 8.41969 1.18483 -2.24654
C 8.63034 0.64519 -3.64111
C 9.42466 -0.73019 -3.45414
C 9.45901 -0.79488 -1.91140
C 7.36167 0.39324 -4.45559
C 10.76156 -0.88192 -4.23024
C 11.78965 0.08039 -3.68035
N 9.75393 -1.16026 1.02772
C 10.05529 -2.13932 0.05576
C 10.47680 -3.35617 0.77966
C 10.36851 -3.00523 2.13376
C 9.89248 -1.67096 2.24611
C 10.84360 -4.59474 0.18173
C 10.53853 -3.46364 3.49378
O 10.99729 -4.47795 4.01766
C 9.85715 -2.41116 4.47072
C 10.82388 -2.11839 5.58528
O 11.90253 -1.54505 5.35207
O 10.22474 -2.36524 6.76446
C 11.14022 -2.07911 7.90105
H 6.24426 3.37279 3.18156
H 7.88441 2.97154 -2.83180
H 10.29921 -2.74144 -1.84936
H 7.89787 -0.41207 5.88611
H 6.99016 2.20440 5.36917
H 5.84662 -0.49332 4.77351
H 5.36144 0.78739 3.64271
H 4.99626 0.99775 5.32855
H 9.36676 2.21945 5.59758
H 10.33774 0.72262 5.84634
H 8.30700 0.79877 7.84078
H 8.72574 2.45290 7.56990
H 6.10244 5.38200 2.56212
H 5.53429 5.99349 1.04473
H 7.10740 6.57664 1.63805
H 6.20659 6.98074 -0.83908
H 7.33721 7.55912 -2.19329
H 7.90774 7.25683 -0.52699
H 9.23529 1.32302 -4.23078
H 8.83122 -1.59258 -3.79169
H 7.34491 0.93949 -5.41757
H 6.50746 0.66428 -3.84946
H 7.16000 -0.65173 -4.68488
H 10.62115 -0.61875 -5.28152
H 11.16592 -1.88823 -4.20142
H 11.55345 1.01555 -4.19685
H 12.79635 -0.25797 -3.91723
H 11.63731 0.24857 -2.60789
H 11.72402 -4.94417 0.70448
H 11.03176 -4.48150 -0.88389
H 9.94235 -5.18121 0.37938
H 8.93168 -2.85642 4.83791
H 11.19699 -2.99130 8.50302
H 10.73283 -1.17572 8.39266
H 12.18612 -1.91131 7.67218

