%nproc=24
%mem=175gb
#p cam-b3lyp/Def2SVP td=(nstates=5)

TDDFT excited states in gaussian

0 1
Mg 31.52812 2.84652 2.40108
C 33.78288 2.99560 5.18907
C 29.05657 2.10318 4.63122
C 29.61574 2.26566 -0.06323
C 34.31615 2.46731 0.34468
N 31.54178 2.60881 4.60007
C 32.44424 2.74972 5.55926
C 31.86592 2.69955 6.99891
C 30.53203 1.85926 6.69307
C 30.33667 2.23625 5.22597
C 30.73551 0.35563 6.77684
C 31.53023 4.12659 7.55827
C 31.25417 4.17912 9.06253
H 31.68880 5.35640 9.80925
N 29.54801 2.75298 2.30620
C 28.69807 2.45983 3.31265
C 27.34987 2.50033 2.72538
C 27.48430 2.67919 1.25410
C 28.91967 2.54918 1.10281
C 26.09939 2.45432 3.55460
C 26.48494 2.91398 0.16214
O 26.80060 2.80181 -1.07503
C 25.10373 3.18739 0.58521
N 31.89018 2.21609 0.45331
C 30.88534 2.09333 -0.43165
C 31.41335 1.89635 -1.83265
C 32.98869 2.15522 -1.73841
C 33.11767 2.37936 -0.21575
C 31.15984 0.52211 -2.45201
C 33.58493 3.22315 -2.69586
C 33.08000 4.59646 -2.31580
N 33.67194 2.92994 2.65629
C 34.65756 2.71624 1.66788
C 35.97005 2.76435 2.34426
C 35.65336 2.98151 3.69372
C 34.24229 3.04284 3.85062
C 37.23476 2.56913 1.72096
C 36.19153 3.16220 5.02279
O 37.32147 3.29012 5.49247
C 35.00033 3.05314 6.06947
C 35.11763 4.20602 7.02844
O 34.96481 5.37515 6.63297
O 35.17411 3.72956 8.28549
C 35.27987 4.83591 9.27373
H 28.25867 1.64304 5.21474
H 29.00586 2.16660 -0.96418
H 35.23719 2.45576 -0.24202
H 32.48132 2.17168 7.71753
H 29.69666 2.21249 7.29202
H 31.77504 0.09670 6.91272
H 30.36520 -0.04387 5.84179
H 30.09874 -0.06795 7.55878
H 30.54994 4.43941 7.17631
H 32.30453 4.82562 7.30836
H 31.57239 3.26161 9.57229
H 30.17272 4.20970 9.21601
H 26.31286 2.15474 4.58808
H 25.48242 1.64078 3.15790
H 25.52932 3.38470 3.50906
H 24.73685 2.35467 1.18055
H 24.55720 3.41656 -0.33167
H 25.10585 4.06575 1.24026
H 30.97896 2.61707 -2.51454
H 33.56536 1.24831 -1.97251
H 30.60975 0.57021 -3.41073
H 30.62070 -0.08163 -1.73412
H 32.05217 -0.07496 -2.63217
H 33.25062 3.04211 -3.72037
H 34.66969 3.23455 -2.70834
H 32.10451 4.64589 -2.80881
H 33.75044 5.36796 -2.68908
H 32.90738 4.66728 -1.23560
H 37.89760 3.32662 2.11765
H 37.15838 2.63438 0.63759
H 37.46264 1.55370 2.05597
H 35.09408 2.09037 6.57332
H 36.17223 4.64148 9.87670
H 34.30890 4.85723 9.80336
H 35.49321 5.82831 8.89415

