%nproc=24
%mem=175gb
#p cam-b3lyp/Def2SVP td=(nstates=5)

TDDFT excited states in gaussian

0 1
Mg 31.53893 2.84287 2.40276
C 31.37124 0.28263 4.91197
C 30.28492 4.99777 4.73052
C 31.25016 5.00610 0.09962
C 31.67942 0.30395 0.01951
N 30.94516 2.55846 4.51435
C 30.98371 1.55586 5.37902
C 30.66160 1.95687 6.84360
C 29.80009 3.27924 6.54692
C 30.39944 3.66337 5.19566
C 28.31902 3.00119 6.35082
C 31.95342 2.28655 7.67096
C 31.74096 2.38460 9.18324
H 32.80496 1.91694 10.06736
N 31.33702 4.81421 2.51042
C 30.82956 5.52525 3.53910
C 30.88037 6.93396 3.11826
C 31.30624 6.98271 1.69314
C 31.29396 5.57103 1.36591
C 30.61990 8.07421 4.05923
C 31.65317 8.11370 0.77297
O 31.76564 7.94212 -0.49223
C 31.76548 9.44581 1.38483
N 31.26068 2.68654 0.34838
C 31.22134 3.78270 -0.42932
C 31.29062 3.41613 -1.89261
C 31.62976 1.85367 -1.92850
C 31.60886 1.55531 -0.41326
C 30.02331 3.68036 -2.70532
C 32.87583 1.42265 -2.74960
C 34.13345 1.93907 -2.08847
N 31.71496 0.68969 2.43250
C 31.72909 -0.18043 1.32039
C 31.74864 -1.56036 1.84748
C 31.72105 -1.39642 3.24063
C 31.66634 -0.01254 3.55900
C 31.73877 -2.74974 1.06556
C 31.71504 -2.07969 4.51413
O 31.83549 -3.25055 4.87233
C 31.36059 -1.02678 5.65086
C 32.34568 -1.20586 6.77338
O 33.55178 -0.95590 6.60176
O 31.67406 -1.43174 7.91718
C 32.60780 -1.60489 9.06171
H 29.68572 5.69990 5.31091
H 31.26178 5.71341 -0.73288
H 31.82259 -0.54075 -0.65773
H 30.06307 1.23804 7.39025
H 29.99669 4.05258 7.28493
H 28.10766 1.94248 6.32617
H 28.05564 3.46163 5.40759
H 27.73348 3.52159 7.11413
H 32.26194 3.31801 7.45731
H 32.73158 1.57886 7.46052
H 30.77429 1.96812 9.49153
H 31.67741 3.44056 9.45699
H 30.16901 7.72688 4.99702
H 29.84502 8.69735 3.59974
H 31.50716 8.68612 4.23529
H 30.82486 9.70254 1.86627
H 32.10684 10.10662 0.58566
H 32.52286 9.40486 2.17559
H 32.08443 3.95955 -2.39025
H 30.81188 1.26936 -2.37514
H 30.19305 4.34169 -3.57589
H 29.27709 4.10356 -2.04607
H 29.52158 2.79019 -3.08092
H 32.84446 1.86761 -3.74719
H 32.95779 0.34857 -2.87849
H 34.20119 2.96730 -2.45623
H 34.99660 1.35221 -2.39605
H 34.01509 1.98553 -0.99968
H 32.46137 -3.42085 1.51049
H 31.97584 -2.54282 0.02405
H 30.69863 -3.06023 1.19593
H 30.33612 -1.22188 5.97020
H 32.37402 -2.57007 9.52156
H 32.48045 -0.70347 9.69018
H 33.66051 -1.72783 8.83554

