%nproc=24
%mem=175gb
#p cam-b3lyp/Def2SVP td=(nstates=5)

TDDFT excited states in gaussian

0 1
Mg 0.00000 0.00000 0.00000
C -0.21700 -2.21800 2.80100
C -1.25500 2.44200 2.02600
C -0.24500 1.85000 -2.56400
C 0.14600 -2.82400 -2.03700
N -0.61700 -0.00900 2.12600
C -0.59400 -0.90800 3.10500
C -0.93600 -0.30900 4.50200
C -1.77300 0.96400 4.03200
C -1.15500 1.16800 2.66000
C -3.26300 0.68500 3.86300
C 0.34500 0.11000 5.29900
C 0.12400 0.39700 6.78700
H 1.16800 0.03300 7.73300
N -0.18500 1.96100 -0.15200
C -0.70300 2.80000 0.77700
C -0.62000 4.15600 0.19300
C -0.18700 4.01500 -1.22500
C -0.21400 2.58300 -1.38000
C -0.88700 5.40600 0.97400
C 0.18100 5.01300 -2.27700
O 0.30300 4.69000 -3.50800
C 0.31000 6.41400 -1.83700
N -0.26500 -0.41300 -2.02900
C -0.27900 0.56900 -2.93700
C -0.19600 0.02400 -4.33200
C 0.12400 -1.53300 -4.18000
C 0.08600 -1.63200 -2.63500
C -1.45100 0.20500 -5.19700
C 1.37300 -2.07000 -4.92300
C 2.62600 -1.49000 -4.30600
N 0.15000 -2.14400 0.30300
C 0.17300 -3.13600 -0.68800
C 0.17300 -4.43800 0.00400
C 0.13300 -4.11100 1.35800
C 0.08300 -2.69500 1.50200
C 0.14900 -5.71500 -0.62300
C 0.09600 -4.62900 2.71600
O 0.20800 -5.74700 3.22100
C -0.25500 -3.42800 3.70100
C 0.71700 -3.48200 4.84800
O 1.93100 -3.25500 4.66900
O 0.03800 -3.55600 6.00300
C 0.94300 -3.58300 7.18300
H -1.85900 3.22000 2.49700
H -0.21800 2.45300 -3.47400
H 0.27600 -3.74700 -2.60500
H -1.55400 -0.94900 5.13200
H -1.58500 1.83100 4.66500
H -3.48400 -0.37700 3.96900
H -3.51100 1.02700 2.85800
H -3.85200 1.30100 4.54300
H 0.66900 1.09600 4.96600
H 1.13000 -0.63900 5.18900
H -0.84400 0.02600 7.12500
H 0.06200 1.47700 6.92100
H -1.34400 5.18600 1.93800
H -1.65100 5.96300 0.43200
H 0.00700 6.02000 1.08400
H -0.63500 6.74400 -1.40500
H 0.66500 6.97000 -2.70400
H 1.04800 6.46600 -1.03600
H 0.60800 0.50100 -4.89100
H -0.69200 -2.15600 -4.54700
H -1.26700 0.74000 -6.12900
H -2.20400 0.71400 -4.59600
H -1.96700 -0.72000 -5.45300
H 1.35600 -1.75900 -5.96700
H 1.45200 -3.15700 -4.90200
H 2.71400 -0.52200 -4.79800
H 3.48700 -2.12100 -4.52900
H 2.49500 -1.30300 -3.24000
H 0.86700 -6.33300 -0.08400
H 0.40400 -5.64200 -1.68000
H -0.89100 -5.99900 -0.46300
H -1.28300 -3.58100 4.02800
H 0.69800 -4.47800 7.75500
H 0.83300 -2.61900 7.68000
H 2.00000 -3.75400 6.97600
Mg 8.94054 0.81182 0.68271
C 8.51810 0.23156 4.19895
C 7.73409 3.95859 1.20893
C 8.87520 1.20590 -2.46496
C 9.01477 -2.64698 0.26208
N 8.24959 1.84480 2.51241
C 8.19263 1.54510 3.80132
C 7.83998 2.74181 4.72494
C 7.07418 3.65729 3.65055
C 7.74767 3.15332 2.37575
C 5.58735 3.35786 3.55565
C 9.11702 3.46062 5.28575
C 8.85310 4.43804 6.43325
H 9.85129 4.55328 7.49287
N 8.85731 2.47143 -0.40234
C 8.35577 3.66611 -0.02488
C 8.50998 4.55295 -1.18846
C 8.99250 3.73956 -2.33750
C 8.90528 2.40780 -1.77280
C 8.28477 6.03539 -1.11721
C 9.44401 4.09952 -3.72053
O 9.59414 3.21133 -4.63235
C 9.61512 5.53230 -4.00219
N 8.73227 -0.51906 -0.90086
C 8.79090 -0.09254 -2.17466
C 8.89348 -1.25376 -3.13457
C 9.13619 -2.54488 -2.22261
C 9.03863 -1.89081 -0.82687
C 7.67716 -1.48542 -4.03083
C 10.38376 -3.41140 -2.54726
C 11.64466 -2.63908 -2.23253
N 8.98142 -0.91270 1.98364
C 8.98428 -2.27143 1.59902
C 8.89794 -3.07428 2.83612
C 8.82706 -2.11909 3.86134
C 8.84610 -0.81314 3.30131
C 8.84437 -4.49508 2.90372
C 8.72976 -1.91864 5.28930
O 8.76351 -2.65524 6.27419
C 8.39789 -0.38856 5.56336
C 9.32611 0.10238 6.64034
O 10.55109 0.16968 6.43663
O 8.59833 0.61358 7.64998
C 9.47487 1.12370 8.73777
H 7.15773 4.88405 1.22393
H 8.96265 1.28496 -3.55105
H 9.13119 -3.73211 0.22193
H 7.17746 2.50087 5.54761
H 7.28987 4.71138 3.80460
H 5.31184 2.49492 4.14350
H 5.38947 3.17994 2.50673
H 5.00631 4.24427 3.82584
H 9.49690 4.15828 4.52831
H 9.85730 2.74410 5.58443
H 7.85133 4.31047 6.86119
H 8.84469 5.45331 6.02930
H 7.77752 6.32097 -0.18741
H 7.56826 6.28825 -1.90623
H 9.20086 6.60865 -1.27476
H 8.67443 6.04937 -3.82839
H 10.02726 5.58447 -5.01179
H 10.33757 5.94515 -3.28928
H 9.73801 -1.13078 -3.80147
H 8.30142 -3.25746 -2.29476
H 7.92092 -1.47027 -5.10992
H 6.93386 -0.73443 -3.79832
H 7.13600 -2.41152 -3.84464
H 10.41840 -3.64026 -3.61523
H 10.40384 -4.35631 -2.01460
H 11.79012 -2.02837 -3.12861
H 12.48093 -3.31777 -2.07740
H 11.48766 -1.95579 -1.38984
H 9.50633 -4.79380 3.70564
H 9.13366 -4.94928 1.95832
H 7.78274 -4.64011 3.12095
H 7.35178 -0.32940 5.86624
H 9.16418 0.62276 9.65984
H 9.37962 2.22537 8.70633
H 10.52583 0.86216 8.69878

