%nproc=24
%mem=175gb
#p cam-b3lyp/Def2SVP td=(nstates=5)

TDDFT excited states in gaussian

0 1
Mg 0.00000 0.00000 0.00000
C -0.21700 -2.21800 2.80100
C -1.25500 2.44200 2.02600
C -0.24500 1.85000 -2.56400
C 0.14600 -2.82400 -2.03700
N -0.61700 -0.00900 2.12600
C -0.59400 -0.90800 3.10500
C -0.93600 -0.30900 4.50200
C -1.77300 0.96400 4.03200
C -1.15500 1.16800 2.66000
C -3.26300 0.68500 3.86300
C 0.34500 0.11000 5.29900
C 0.12400 0.39700 6.78700
H 1.16800 0.03300 7.73300
N -0.18500 1.96100 -0.15200
C -0.70300 2.80000 0.77700
C -0.62000 4.15600 0.19300
C -0.18700 4.01500 -1.22500
C -0.21400 2.58300 -1.38000
C -0.88700 5.40600 0.97400
C 0.18100 5.01300 -2.27700
O 0.30300 4.69000 -3.50800
C 0.31000 6.41400 -1.83700
N -0.26500 -0.41300 -2.02900
C -0.27900 0.56900 -2.93700
C -0.19600 0.02400 -4.33200
C 0.12400 -1.53300 -4.18000
C 0.08600 -1.63200 -2.63500
C -1.45100 0.20500 -5.19700
C 1.37300 -2.07000 -4.92300
C 2.62600 -1.49000 -4.30600
N 0.15000 -2.14400 0.30300
C 0.17300 -3.13600 -0.68800
C 0.17300 -4.43800 0.00400
C 0.13300 -4.11100 1.35800
C 0.08300 -2.69500 1.50200
C 0.14900 -5.71500 -0.62300
C 0.09600 -4.62900 2.71600
O 0.20800 -5.74700 3.22100
C -0.25500 -3.42800 3.70100
C 0.71700 -3.48200 4.84800
O 1.93100 -3.25500 4.66900
O 0.03800 -3.55600 6.00300
C 0.94300 -3.58300 7.18300
H -1.85900 3.22000 2.49700
H -0.21800 2.45300 -3.47400
H 0.27600 -3.74700 -2.60500
H -1.55400 -0.94900 5.13200
H -1.58500 1.83100 4.66500
H -3.48400 -0.37700 3.96900
H -3.51100 1.02700 2.85800
H -3.85200 1.30100 4.54300
H 0.66900 1.09600 4.96600
H 1.13000 -0.63900 5.18900
H -0.84400 0.02600 7.12500
H 0.06200 1.47700 6.92100
H -1.34400 5.18600 1.93800
H -1.65100 5.96300 0.43200
H 0.00700 6.02000 1.08400
H -0.63500 6.74400 -1.40500
H 0.66500 6.97000 -2.70400
H 1.04800 6.46600 -1.03600
H 0.60800 0.50100 -4.89100
H -0.69200 -2.15600 -4.54700
H -1.26700 0.74000 -6.12900
H -2.20400 0.71400 -4.59600
H -1.96700 -0.72000 -5.45300
H 1.35600 -1.75900 -5.96700
H 1.45200 -3.15700 -4.90200
H 2.71400 -0.52200 -4.79800
H 3.48700 -2.12100 -4.52900
H 2.49500 -1.30300 -3.24000
H 0.86700 -6.33300 -0.08400
H 0.40400 -5.64200 -1.68000
H -0.89100 -5.99900 -0.46300
H -1.28300 -3.58100 4.02800
H 0.69800 -4.47800 7.75500
H 0.83300 -2.61900 7.68000
H 2.00000 -3.75400 6.97600
Mg 13.14624 1.17616 1.00105
C 13.34948 -0.95967 -1.87575
C 12.37473 -1.60198 2.82350
C 12.51892 3.08350 3.45787
C 12.80171 3.86348 -1.19106
N 12.92174 -0.95000 0.43423
C 13.08339 -1.65301 -0.67662
C 13.03201 -3.19158 -0.47730
C 12.16771 -3.23005 0.87561
C 12.53272 -1.85775 1.43796
C 10.66821 -3.26258 0.63109
C 14.45649 -3.81493 -0.26681
C 14.51324 -5.34036 -0.37443
H 15.70201 -5.95300 -0.96094
N 13.01898 0.77306 2.94009
C 12.71756 -0.41430 3.50631
C 12.73200 -0.18252 4.95897
C 12.90443 1.27594 5.19958
C 12.79761 1.78094 3.84545
C 12.66993 -1.29799 5.96161
C 13.11601 2.08386 6.44404
O 13.00187 3.36050 6.44555
C 13.36872 1.32947 7.68037
N 12.51051 3.15166 1.12600
C 12.36573 3.75725 2.31773
C 12.16938 5.24544 2.15309
C 12.45517 5.54827 0.60900
C 12.69040 4.10649 0.10768
C 10.78748 5.77972 2.52894
C 13.52728 6.62595 0.28987
C 14.89416 6.13384 0.70805
N 13.26708 1.46492 -1.13672
C 13.06411 2.66796 -1.84777
C 13.13818 2.34111 -3.28656
C 13.35794 0.95565 -3.31326
C 13.39654 0.45119 -1.98528
C 12.96052 3.26039 -4.35869
C 13.55544 -0.19648 -4.16314
O 13.70503 -0.36869 -5.37214
C 13.43260 -1.50780 -3.27334
C 14.59290 -2.40529 -3.60608
O 15.75696 -2.05879 -3.33864
O 14.12486 -3.60905 -3.98325
C 15.23862 -4.53784 -4.31297
H 11.90472 -2.36708 3.44204
H 12.40436 3.80330 4.27165
H 12.80214 4.66172 -1.93637
H 12.51877 -3.73440 -1.26196
H 12.51041 -4.01823 1.54097
H 10.42753 -3.13477 -0.41384
H 10.25706 -2.45035 1.21613
H 10.23863 -4.17949 1.04470
H 14.75059 -3.68959 0.78321
H 15.16691 -3.37839 -0.94162
H 13.60421 -5.75581 -0.82611
H 14.52659 -5.75918 0.63474
H 12.38005 -2.24579 5.49145
H 11.84385 -1.06930 6.64363
H 13.59034 -1.39496 6.54135
H 12.53349 0.66007 7.87208
H 13.58330 2.08102 8.44261
H 14.25083 0.69706 7.53021
H 12.87870 5.79823 2.75675
H 11.55668 5.91768 0.09315
H 10.82070 6.57063 3.30188
H 10.17902 4.94897 2.86086
H 10.20439 6.17626 1.69950
H 13.33464 7.53413 0.86628
H 13.55679 6.90914 -0.75699
H 14.92433 6.36750 1.77650
H 15.67457 6.66398 0.16589
H 14.96843 5.04488 0.60655
H 13.73132 3.04308 -5.08610
H 13.01811 4.29039 -4.01292
H 11.95103 2.99142 -4.68097
H 12.47452 -1.97369 -3.50701
H 15.06272 -4.89897 -5.33097
H 15.24679 -5.29328 -3.50488
H 16.23221 -4.11549 -4.40711

