%nproc=24
%mem=175gb
#p cam-b3lyp/Def2SVP td=(nstates=5)

TDDFT excited states in gaussian

0 1
Mg 0.00000 0.00000 0.00000
C -0.21700 -2.21800 2.80100
C -1.25500 2.44200 2.02600
C -0.24500 1.85000 -2.56400
C 0.14600 -2.82400 -2.03700
N -0.61700 -0.00900 2.12600
C -0.59400 -0.90800 3.10500
C -0.93600 -0.30900 4.50200
C -1.77300 0.96400 4.03200
C -1.15500 1.16800 2.66000
C -3.26300 0.68500 3.86300
C 0.34500 0.11000 5.29900
C 0.12400 0.39700 6.78700
H 1.16800 0.03300 7.73300
N -0.18500 1.96100 -0.15200
C -0.70300 2.80000 0.77700
C -0.62000 4.15600 0.19300
C -0.18700 4.01500 -1.22500
C -0.21400 2.58300 -1.38000
C -0.88700 5.40600 0.97400
C 0.18100 5.01300 -2.27700
O 0.30300 4.69000 -3.50800
C 0.31000 6.41400 -1.83700
N -0.26500 -0.41300 -2.02900
C -0.27900 0.56900 -2.93700
C -0.19600 0.02400 -4.33200
C 0.12400 -1.53300 -4.18000
C 0.08600 -1.63200 -2.63500
C -1.45100 0.20500 -5.19700
C 1.37300 -2.07000 -4.92300
C 2.62600 -1.49000 -4.30600
N 0.15000 -2.14400 0.30300
C 0.17300 -3.13600 -0.68800
C 0.17300 -4.43800 0.00400
C 0.13300 -4.11100 1.35800
C 0.08300 -2.69500 1.50200
C 0.14900 -5.71500 -0.62300
C 0.09600 -4.62900 2.71600
O 0.20800 -5.74700 3.22100
C -0.25500 -3.42800 3.70100
C 0.71700 -3.48200 4.84800
O 1.93100 -3.25500 4.66900
O 0.03800 -3.55600 6.00300
C 0.94300 -3.58300 7.18300
H -1.85900 3.22000 2.49700
H -0.21800 2.45300 -3.47400
H 0.27600 -3.74700 -2.60500
H -1.55400 -0.94900 5.13200
H -1.58500 1.83100 4.66500
H -3.48400 -0.37700 3.96900
H -3.51100 1.02700 2.85800
H -3.85200 1.30100 4.54300
H 0.66900 1.09600 4.96600
H 1.13000 -0.63900 5.18900
H -0.84400 0.02600 7.12500
H 0.06200 1.47700 6.92100
H -1.34400 5.18600 1.93800
H -1.65100 5.96300 0.43200
H 0.00700 6.02000 1.08400
H -0.63500 6.74400 -1.40500
H 0.66500 6.97000 -2.70400
H 1.04800 6.46600 -1.03600
H 0.60800 0.50100 -4.89100
H -0.69200 -2.15600 -4.54700
H -1.26700 0.74000 -6.12900
H -2.20400 0.71400 -4.59600
H -1.96700 -0.72000 -5.45300
H 1.35600 -1.75900 -5.96700
H 1.45200 -3.15700 -4.90200
H 2.71400 -0.52200 -4.79800
H 3.48700 -2.12100 -4.52900
H 2.49500 -1.30300 -3.24000
H 0.86700 -6.33300 -0.08400
H 0.40400 -5.64200 -1.68000
H -0.89100 -5.99900 -0.46300
H -1.28300 -3.58100 4.02800
H 0.69800 -4.47800 7.75500
H 0.83300 -2.61900 7.68000
H 2.00000 -3.75400 6.97600
Mg 13.14634 1.18361 0.99089
C 12.71737 4.57211 -0.11052
C 12.59472 0.22279 -2.23512
C 13.07106 -1.82239 2.00366
C 12.52998 2.30572 4.23229
N 12.72271 2.34089 -0.84582
C 12.64439 3.62654 -1.15455
C 12.55899 3.91843 -2.67674
C 11.95742 2.50953 -3.15838
C 12.48311 1.62156 -2.03240
C 10.43867 2.46352 -3.13347
C 13.96730 4.18945 -3.31331
C 13.93222 4.78296 -4.72337
H 14.96301 5.74686 -5.09867
N 13.35926 -0.51535 -0.01249
C 13.11219 -0.72294 -1.32289
C 13.40433 -2.14389 -1.56721
C 13.68577 -2.79648 -0.25968
C 13.35533 -1.71776 0.64986
C 13.47587 -2.73465 -2.94537
C 14.15999 -4.16895 0.11133
O 14.10763 -4.59594 1.31871
C 14.60039 -5.03166 -0.99468
N 12.63709 0.32206 2.81318
C 12.74231 -1.00475 3.00401
C 12.58852 -1.35980 4.46370
C 12.59921 0.03375 5.24824
C 12.67086 1.00051 4.04590
C 11.32570 -2.13961 4.82918
C 13.64332 0.19213 6.38729
C 15.03938 0.21765 5.80783
N 12.88524 3.10227 1.94933
C 12.61118 3.34413 3.31333
C 12.40407 4.79902 3.46446
C 12.55044 5.30385 2.16361
C 12.80910 4.23635 1.26193
C 12.07523 5.47111 4.67536
C 12.53441 6.49581 1.34651
O 12.45091 7.70245 1.57188
C 12.51642 6.06044 -0.18206
C 13.55268 6.87321 -0.90875
O 14.76091 6.73511 -0.64852
O 12.96774 7.51623 -1.93575
C 13.95740 8.32729 -2.69376
H 12.21140 -0.19895 -3.16468
H 13.14175 -2.82831 2.42392
H 12.43047 2.74601 5.22673
H 11.88548 4.72254 -2.94800
H 12.37959 2.20528 -4.11262
H 10.01613 3.34888 -2.68209
H 10.18040 1.58489 -2.55698
H 10.05028 2.28796 -4.14077
H 14.45501 3.22935 -3.52566
H 14.56102 4.81294 -2.67349
H 12.93729 5.16237 -4.98626
H 14.11145 3.97994 -5.44244
H 13.06067 -2.05248 -3.69748
H 12.80088 -3.59724 -2.95895
H 14.48168 -3.06878 -3.20873
H 13.78443 -5.15600 -1.70264
H 14.98624 -5.93746 -0.52296
H 15.40942 -4.52511 -1.53271
H 13.42170 -1.96171 4.80516
H 11.63937 0.22643 5.74964
H 11.53730 -3.10211 5.33206
H 10.75067 -2.30033 3.92693
H 10.61911 -1.60436 5.46119
H 13.60247 -0.66752 7.06071
H 13.49293 1.08121 6.99053
H 15.27639 -0.84377 5.68829
H 15.73058 0.70146 6.49501
H 15.04295 0.67066 4.80962
H 12.68814 6.36184 4.71340
H 12.24331 4.83464 5.54163
H 11.01229 5.66489 4.50842
H 11.51108 6.24389 -0.56312
H 13.58066 9.35460 -2.71327
H 14.07888 7.81674 -3.66758
H 14.93529 8.46907 -2.24868

