%nproc=24
%mem=175gb
#p cam-b3lyp/Def2SVP td=(nstates=5)

TDDFT excited states in gaussian

0 1
Mg 0.00000 0.00000 0.00000
C -0.21700 -2.21800 2.80100
C -1.25500 2.44200 2.02600
C -0.24500 1.85000 -2.56400
C 0.14600 -2.82400 -2.03700
N -0.61700 -0.00900 2.12600
C -0.59400 -0.90800 3.10500
C -0.93600 -0.30900 4.50200
C -1.77300 0.96400 4.03200
C -1.15500 1.16800 2.66000
C -3.26300 0.68500 3.86300
C 0.34500 0.11000 5.29900
C 0.12400 0.39700 6.78700
H 1.16800 0.03300 7.73300
N -0.18500 1.96100 -0.15200
C -0.70300 2.80000 0.77700
C -0.62000 4.15600 0.19300
C -0.18700 4.01500 -1.22500
C -0.21400 2.58300 -1.38000
C -0.88700 5.40600 0.97400
C 0.18100 5.01300 -2.27700
O 0.30300 4.69000 -3.50800
C 0.31000 6.41400 -1.83700
N -0.26500 -0.41300 -2.02900
C -0.27900 0.56900 -2.93700
C -0.19600 0.02400 -4.33200
C 0.12400 -1.53300 -4.18000
C 0.08600 -1.63200 -2.63500
C -1.45100 0.20500 -5.19700
C 1.37300 -2.07000 -4.92300
C 2.62600 -1.49000 -4.30600
N 0.15000 -2.14400 0.30300
C 0.17300 -3.13600 -0.68800
C 0.17300 -4.43800 0.00400
C 0.13300 -4.11100 1.35800
C 0.08300 -2.69500 1.50200
C 0.14900 -5.71500 -0.62300
C 0.09600 -4.62900 2.71600
O 0.20800 -5.74700 3.22100
C -0.25500 -3.42800 3.70100
C 0.71700 -3.48200 4.84800
O 1.93100 -3.25500 4.66900
O 0.03800 -3.55600 6.00300
C 0.94300 -3.58300 7.18300
H -1.85900 3.22000 2.49700
H -0.21800 2.45300 -3.47400
H 0.27600 -3.74700 -2.60500
H -1.55400 -0.94900 5.13200
H -1.58500 1.83100 4.66500
H -3.48400 -0.37700 3.96900
H -3.51100 1.02700 2.85800
H -3.85200 1.30100 4.54300
H 0.66900 1.09600 4.96600
H 1.13000 -0.63900 5.18900
H -0.84400 0.02600 7.12500
H 0.06200 1.47700 6.92100
H -1.34400 5.18600 1.93800
H -1.65100 5.96300 0.43200
H 0.00700 6.02000 1.08400
H -0.63500 6.74400 -1.40500
H 0.66500 6.97000 -2.70400
H 1.04800 6.46600 -1.03600
H 0.60800 0.50100 -4.89100
H -0.69200 -2.15600 -4.54700
H -1.26700 0.74000 -6.12900
H -2.20400 0.71400 -4.59600
H -1.96700 -0.72000 -5.45300
H 1.35600 -1.75900 -5.96700
H 1.45200 -3.15700 -4.90200
H 2.71400 -0.52200 -4.79800
H 3.48700 -2.12100 -4.52900
H 2.49500 -1.30300 -3.24000
H 0.86700 -6.33300 -0.08400
H 0.40400 -5.64200 -1.68000
H -0.89100 -5.99900 -0.46300
H -1.28300 -3.58100 4.02800
H 0.69800 -4.47800 7.75500
H 0.83300 -2.61900 7.68000
H 2.00000 -3.75400 6.97600
Mg 8.94075 0.81267 0.67893
C 8.37164 2.01663 4.01145
C 7.86916 3.85093 -0.44147
C 9.00148 -0.36346 -2.26733
C 8.86355 -2.41864 1.98215
N 8.23821 2.61903 1.74465
C 8.12315 2.98175 3.01333
C 7.79699 4.48445 3.22562
C 7.11290 4.78517 1.80419
C 7.80446 3.71048 0.96785
C 5.61752 4.51519 1.78684
C 9.08716 5.35203 3.43719
C 8.83146 6.76891 3.95567
H 9.79740 7.35685 4.87966
N 8.97404 1.74187 -1.07437
C 8.51773 2.98240 -1.34665
C 8.75372 3.19150 -2.78357
C 9.23555 1.91180 -3.37089
C 9.06550 1.02207 -2.23972
C 8.59746 4.52862 -3.44773
C 9.75056 1.54622 -4.73005
O 9.88893 0.32431 -5.09145
C 9.99957 2.65911 -5.65794
N 8.72299 -1.11234 -0.07554
C 8.84527 -1.35683 -1.39205
C 8.92473 -2.83967 -1.66641
C 9.07418 -3.53428 -0.23366
C 8.96062 -2.28445 0.66658
C 7.72991 -3.44488 -2.40296
C 10.28915 -4.48118 -0.03390
C 11.57414 -3.68540 -0.06418
N 8.85473 -0.06781 2.65007
C 8.80561 -1.44262 2.96877
C 8.63889 -1.54440 4.43310
C 8.57900 -0.21103 4.86557
C 8.67958 0.66011 3.74731
C 8.51509 -2.75333 5.17423
C 8.44289 0.65753 6.01264
O 8.40780 0.48865 7.23083
C 8.17552 2.13715 5.49726
C 9.08902 3.06395 6.25164
O 10.32203 2.99308 6.10586
O 8.35262 4.01810 6.84972
C 9.21507 4.96822 7.60157
H 7.33760 4.68251 -0.90494
H 9.12950 -0.82187 -3.25066
H 8.92917 -3.39036 2.47624
H 7.09609 4.68847 4.02617
H 7.37344 5.77638 1.44226
H 5.28117 4.05162 2.70232
H 5.44714 3.85721 0.94477
H 5.07074 5.43617 1.56513
H 9.52556 5.58633 2.45859
H 9.78169 4.85079 4.08296
H 7.81076 6.88984 4.33841
H 8.88542 7.46195 3.11257
H 8.07312 5.24114 -2.79905
H 7.92114 4.38644 -4.29758
H 9.54477 4.93060 -3.81336
H 9.07935 3.21950 -5.80496
H 10.44784 2.20589 -6.54424
H 10.71628 3.34673 -5.19522
H 9.79638 -3.07618 -2.26424
H 8.20918 -4.17132 0.00253
H 8.01068 -3.95980 -3.34110
H 7.01594 -2.65647 -2.60093
H 7.13900 -4.15124 -1.82237
H 10.34910 -5.19887 -0.85577
H 10.24583 -5.05070 0.88847
H 11.77908 -3.58826 -1.13453
H 12.37120 -4.22543 0.44288
H 11.42146 -2.67600 0.33515
H 9.13432 -2.64364 6.05458
H 8.81429 -3.61537 4.58165
H 7.44096 -2.74810 5.37793
H 7.12375 2.36207 5.67826
H 8.84956 4.98390 8.63300
H 9.17380 5.91925 7.03802
H 10.25302 4.69377 7.74916

