%nproc=24
%mem=175gb
#p cam-b3lyp/Def2SVP td=(nstates=5)

TDDFT excited states in gaussian

0 1
Mg 10.51427 0.95398 0.80486
C 11.49734 -0.94858 3.68460
C 8.30876 2.59278 2.82592
C 9.31136 2.32866 -1.78949
C 11.92490 -1.55407 -1.16124
N 10.05528 0.75848 2.95971
C 10.53592 0.04427 3.96631
C 10.01231 0.46951 5.36437
C 8.63678 1.16004 4.90615
C 9.02740 1.56424 3.48605
C 7.47315 0.18622 4.82259
C 10.96350 1.49769 6.07153
C 10.67857 1.71995 7.55853
H 11.80620 1.95832 8.45525
N 9.39674 2.58305 0.61557
C 8.57775 3.12040 1.54389
C 7.96768 4.29865 0.90852
C 8.36757 4.31845 -0.52480
C 9.03842 3.03815 -0.62902
C 7.16500 5.31111 1.67276
C 8.16681 5.31789 -1.62345
O 8.39031 5.02342 -2.85071
C 7.61203 6.62147 -1.23054
N 10.41383 0.36330 -1.18596
C 9.88510 1.17188 -2.12114
C 10.16998 0.65684 -3.51181
C 11.21154 -0.54165 -3.32109
C 11.28325 -0.57154 -1.77857
C 8.95777 0.15709 -4.29741
C 12.53996 -0.45362 -4.12123
C 13.37804 0.69398 -3.60545
N 11.69072 -0.82326 1.15904
C 12.15431 -1.74540 0.19528
C 12.80896 -2.84865 0.92788
C 12.65937 -2.50043 2.27875
C 11.94312 -1.27736 2.38156
C 13.39183 -4.00680 0.34044
C 12.93522 -2.89477 3.64151
O 13.58505 -3.79565 4.17055
C 12.08472 -1.97171 4.61670
C 12.99777 -1.48322 5.70769
O 13.94547 -0.72195 5.44511
O 12.47549 -1.81723 6.90185
C 13.33983 -1.34448 8.01597
H 7.42859 3.00836 3.31732
H 9.01400 2.81590 -2.72097
H 12.47507 -2.32459 -1.70556
H 9.80879 -0.35092 6.04205
H 8.41721 2.03935 5.50612
H 7.79097 -0.83504 4.97146
H 7.05499 0.31181 3.83243
H 6.68507 0.47963 5.52200
H 10.75217 2.50389 5.68729
H 11.99106 1.22035 5.93801
H 10.01585 0.94944 7.97090
H 10.11183 2.64772 7.66838
H 6.90154 4.94408 2.67239
H 6.20331 5.41132 1.15801
H 7.64858 6.28952 1.71181
H 6.64655 6.47378 -0.75252
H 7.62557 7.22998 -2.13686
H 8.27054 7.06948 -0.47804
H 10.62687 1.42558 -4.12286
H 10.78508 -1.50586 -3.63459
H 8.82259 0.67345 -5.26652
H 8.07812 0.27376 -3.67842
H 8.95217 -0.91103 -4.50784
H 12.33502 -0.24002 -5.17315
H 13.12657 -1.36556 -4.08614
H 12.96177 1.55899 -4.13038
H 14.42627 0.54631 -3.85735
H 13.21480 0.84949 -2.53268
H 14.33084 -4.17563 0.85060
H 13.53750 -3.87908 -0.73018
H 12.62022 -4.74831 0.56415
H 11.26564 -2.57609 5.00838
H 13.57701 -2.21908 8.62957
H 12.77829 -0.52500 8.50267
H 14.33161 -0.98757 7.76412

