%nproc=24
%mem=175gb
#p cam-b3lyp/Def2SVP td=(nstates=5)

TDDFT excited states in gaussian

0 1
Mg 7.87306 0.71228 0.59679
C 6.83732 -2.10613 -1.36862
C 7.12423 2.67300 -2.09197
C 9.19540 3.15288 2.13378
C 9.57839 -1.52512 2.65388
N 7.08833 0.22924 -1.41396
C 6.67343 -0.86934 -2.02659
C 5.97412 -0.62044 -3.38989
C 6.63860 0.79757 -3.74565
C 6.94101 1.28758 -2.33105
C 7.95232 0.67438 -4.49950
C 4.41552 -0.50549 -3.24998
C 3.64472 -0.57144 -4.57031
H 2.34250 -1.23212 -4.58379
N 7.68441 2.66652 0.30712
C 7.35139 3.29035 -0.84232
C 7.36814 4.72963 -0.53841
C 7.89853 4.91183 0.84007
C 8.30848 3.55597 1.14613
C 6.83504 5.76707 -1.48336
C 8.02852 6.11065 1.73008
O 8.73702 6.08292 2.79783
C 7.37829 7.34502 1.26636
N 9.36535 0.82810 2.03971
C 9.71451 2.00885 2.57992
C 10.60523 1.81576 3.78397
C 10.58497 0.24542 4.08595
C 9.71941 -0.22953 2.89825
C 12.05131 2.28430 3.62366
C 10.17576 -0.19033 5.51960
C 8.71867 0.13221 5.76091
N 8.02393 -1.43603 0.77019
C 8.81503 -2.16445 1.68541
C 8.67454 -3.59410 1.34075
C 7.82292 -3.59662 0.22574
C 7.47455 -2.26139 -0.11380
C 9.32835 -4.67579 1.99542
C 7.14796 -4.42454 -0.74774
O 7.00209 -5.63591 -0.90601
C 6.58113 -3.48881 -1.90078
C 5.15396 -3.88584 -2.16168
O 4.28289 -3.72251 -1.28923
O 5.01193 -4.18820 -3.46505
C 3.61051 -4.57756 -3.77528
H 7.13744 3.34971 -2.94681
H 9.59356 3.95122 2.76433
H 10.00003 -2.29173 3.30749
H 6.20948 -1.34507 -4.16014
H 5.92517 1.45688 -4.23319
H 8.28269 -0.35142 -4.56829
H 8.66751 1.26566 -3.94279
H 7.86915 1.14825 -5.48178
H 4.15865 0.51352 -2.93316
H 4.03793 -1.24755 -2.57367
H 4.26946 -0.93657 -5.39452
H 3.37710 0.44559 -4.86707
H 6.66388 5.35017 -2.48351
H 7.63075 6.50556 -1.62945
H 5.94895 6.27428 -1.09574
H 7.78136 7.62267 0.29532
H 7.50569 8.06482 2.07724
H 6.31134 7.14411 1.11846
H 10.21268 2.34412 4.64411
H 11.57809 -0.20807 3.95219
H 12.35598 3.02803 4.38399
H 12.17070 2.68844 2.62719
H 12.79815 1.49242 3.64280
H 10.74545 0.37206 6.26345
H 10.34325 -1.24425 5.71504
H 8.74395 1.18735 6.04921
H 8.31688 -0.48608 6.56111
H 8.14017 0.05786 4.83276
H 8.58910 -5.45545 2.12244
H 9.74943 -4.36680 2.94988
H 10.10381 -4.90840 1.26070
H 7.21270 -3.63131 -2.77850
H 3.64952 -5.56701 -4.24128
H 3.19823 -3.75037 -4.38317
H 2.94533 -4.76320 -2.94010

