%nproc=24
%mem=175gb
#p cam-b3lyp/Def2SVP td=(nstates=5)

TDDFT excited states in gaussian

0 1
Mg 0.00000 0.00000 0.00000
C -0.21700 -2.21800 2.80100
C -1.25500 2.44200 2.02600
C -0.24500 1.85000 -2.56400
C 0.14600 -2.82400 -2.03700
N -0.61700 -0.00900 2.12600
C -0.59400 -0.90800 3.10500
C -0.93600 -0.30900 4.50200
C -1.77300 0.96400 4.03200
C -1.15500 1.16800 2.66000
C -3.26300 0.68500 3.86300
C 0.34500 0.11000 5.29900
C 0.12400 0.39700 6.78700
H 1.16800 0.03300 7.73300
N -0.18500 1.96100 -0.15200
C -0.70300 2.80000 0.77700
C -0.62000 4.15600 0.19300
C -0.18700 4.01500 -1.22500
C -0.21400 2.58300 -1.38000
C -0.88700 5.40600 0.97400
C 0.18100 5.01300 -2.27700
O 0.30300 4.69000 -3.50800
C 0.31000 6.41400 -1.83700
N -0.26500 -0.41300 -2.02900
C -0.27900 0.56900 -2.93700
C -0.19600 0.02400 -4.33200
C 0.12400 -1.53300 -4.18000
C 0.08600 -1.63200 -2.63500
C -1.45100 0.20500 -5.19700
C 1.37300 -2.07000 -4.92300
C 2.62600 -1.49000 -4.30600
N 0.15000 -2.14400 0.30300
C 0.17300 -3.13600 -0.68800
C 0.17300 -4.43800 0.00400
C 0.13300 -4.11100 1.35800
C 0.08300 -2.69500 1.50200
C 0.14900 -5.71500 -0.62300
C 0.09600 -4.62900 2.71600
O 0.20800 -5.74700 3.22100
C -0.25500 -3.42800 3.70100
C 0.71700 -3.48200 4.84800
O 1.93100 -3.25500 4.66900
O 0.03800 -3.55600 6.00300
C 0.94300 -3.58300 7.18300
H -1.85900 3.22000 2.49700
H -0.21800 2.45300 -3.47400
H 0.27600 -3.74700 -2.60500
H -1.55400 -0.94900 5.13200
H -1.58500 1.83100 4.66500
H -3.48400 -0.37700 3.96900
H -3.51100 1.02700 2.85800
H -3.85200 1.30100 4.54300
H 0.66900 1.09600 4.96600
H 1.13000 -0.63900 5.18900
H -0.84400 0.02600 7.12500
H 0.06200 1.47700 6.92100
H -1.34400 5.18600 1.93800
H -1.65100 5.96300 0.43200
H 0.00700 6.02000 1.08400
H -0.63500 6.74400 -1.40500
H 0.66500 6.97000 -2.70400
H 1.04800 6.46600 -1.03600
H 0.60800 0.50100 -4.89100
H -0.69200 -2.15600 -4.54700
H -1.26700 0.74000 -6.12900
H -2.20400 0.71400 -4.59600
H -1.96700 -0.72000 -5.45300
H 1.35600 -1.75900 -5.96700
H 1.45200 -3.15700 -4.90200
H 2.71400 -0.52200 -4.79800
H 3.48700 -2.12100 -4.52900
H 2.49500 -1.30300 -3.24000
H 0.86700 -6.33300 -0.08400
H 0.40400 -5.64200 -1.68000
H -0.89100 -5.99900 -0.46300
H -1.28300 -3.58100 4.02800
H 0.69800 -4.47800 7.75500
H 0.83300 -2.61900 7.68000
H 2.00000 -3.75400 6.97600
Mg 8.94130 0.81072 0.67405
C 8.32430 3.88368 2.42198
C 8.12834 2.45654 -2.20084
C 9.03804 -1.97960 -0.83334
C 8.58846 -0.83451 3.72600
N 8.32356 2.89933 0.28888
C 8.18332 3.99295 1.02283
C 7.95381 5.29179 0.20436
C 7.34952 4.63204 -1.12922
C 7.99783 3.25238 -1.03478
C 5.84092 4.45506 -1.08276
C 9.29150 6.05766 -0.08900
C 9.11405 7.48459 -0.61257
H 10.08072 8.50061 -0.20548
N 9.10887 0.40131 -1.26060
C 8.75083 1.19234 -2.29374
C 9.05794 0.42680 -3.51185
C 9.47305 -0.94511 -3.11150
C 9.19673 -0.89973 -1.68964
C 9.02133 1.03290 -4.88470
C 10.01537 -2.10991 -3.88306
O 10.08309 -3.28335 -3.37190
C 10.37773 -1.85602 -5.28511
N 8.62103 -1.14432 1.30459
C 8.77857 -2.17796 0.45920
C 8.76602 -3.49443 1.19889
C 8.80965 -3.11508 2.75187
C 8.74707 -1.57606 2.63829
C 7.56252 -4.39742 0.92945
C 9.94716 -3.74806 3.59927
C 11.28437 -3.19197 3.16566
N 8.71583 1.39840 2.74089
C 8.55891 0.54798 3.85724
C 8.32719 1.41155 5.03324
C 8.34257 2.71388 4.51153
C 8.54784 2.66442 3.10621
C 8.09043 0.96090 6.36252
C 8.22124 4.11870 4.82846
O 8.12591 4.76957 5.86818
C 8.07781 4.93251 3.47070
C 9.02244 6.10167 3.52793
O 10.25243 5.91978 3.55366
O 8.33060 7.23752 3.32405
C 9.22607 8.42437 3.36065
H 7.67459 2.81326 -3.12591
H 9.17318 -2.96446 -1.28640
H 8.56684 -1.26634 4.72886
H 7.23731 5.98021 0.63620
H 7.69234 5.15436 -2.01861
H 5.43697 4.69426 -0.11027
H 5.65915 3.41563 -1.32272
H 5.36854 5.03557 -1.88038
H 9.78381 5.59916 -0.95627
H 9.92329 6.06676 0.77783
H 8.08970 7.85067 -0.47242
H 9.24952 7.47574 -1.69682
H 8.52211 2.00971 -4.87998
H 8.37127 0.39860 -5.49704
H 10.00805 1.08134 -5.35020
H 9.50515 -1.49426 -5.82380
H 10.82858 -2.78366 -5.64301
H 11.12130 -1.05173 -5.31414
H 9.64237 -4.08279 0.95610
H 7.89386 -3.42915 3.27391
H 7.84420 -5.40098 0.55851
H 6.91335 -3.89889 0.22193
H 6.90139 -4.55192 1.78047
H 9.99003 -4.82681 3.43011
H 9.82769 -3.59393 4.66649
H 11.53813 -3.80802 2.29781
H 12.02121 -3.30426 3.95843
H 11.18615 -2.15705 2.81787
H 8.68012 1.59136 7.01467
H 8.35264 -0.08858 6.47917
H 7.01197 1.12506 6.43494
H 7.03775 5.25022 3.38749
H 8.82163 9.10661 4.11475
H 9.27332 8.79518 2.31949
H 10.23580 8.27930 3.72652

