%nproc=24
%mem=175gb
#p cam-b3lyp/Def2SVP td=(nstates=5)

TDDFT excited states in gaussian

0 1
Mg 8.94322 0.80824 0.67467
C 11.36541 -1.33824 2.22537
C 10.49816 3.42551 2.21307
C 6.56711 2.66788 -0.30680
C 6.94705 -2.01063 0.21102
N 10.69617 0.90431 2.02011
C 11.57420 0.03127 2.49045
C 12.78590 0.66834 3.22222
C 12.10804 2.06265 3.64089
C 11.05516 2.16313 2.53906
C 11.39330 2.00598 4.98077
C 14.01175 0.88925 2.26801
C 15.32736 1.21849 2.97689
H 16.57105 0.70425 2.41009
N 8.84439 2.78298 0.50379
C 9.56402 3.69608 1.18911
C 9.10486 5.01004 0.71284
C 7.94010 4.80109 -0.18960
C 7.72089 3.37962 -0.01223
C 9.80816 6.29113 1.05576
C 7.14591 5.72965 -1.05749
O 6.02658 5.37726 -1.57301
C 7.67092 7.09443 -1.20984
N 6.94675 0.43062 0.23441
C 6.14312 1.40671 -0.22315
C 4.83648 0.84463 -0.73026
C 5.02718 -0.74317 -0.74107
C 6.44157 -0.83236 -0.12713
C 3.59611 1.20241 0.08818
C 4.75682 -1.47535 -2.08401
C 5.80428 -1.08810 -3.10296
N 9.17109 -1.32204 0.95403
C 8.20078 -2.32138 0.72188
C 8.78271 -3.60468 1.16564
C 10.05256 -3.25676 1.65030
C 10.24042 -1.85274 1.53658
C 8.12931 -4.86892 1.13580
C 11.27270 -3.75654 2.24207
O 11.72260 -4.87401 2.49221
C 12.12787 -2.51983 2.75747
C 13.54496 -2.70770 2.28943
O 13.81865 -2.68209 1.07656
O 14.36891 -2.66894 3.35244
C 15.78694 -2.83977 2.93791
H 10.76903 4.28590 2.82564
H 5.75603 3.24822 -0.75270
H 6.42590 -2.94896 0.00950
H 13.11478 0.13466 4.10585
H 12.81624 2.88389 3.56758
H 11.35824 1.00185 5.37654
H 10.39291 2.37512 4.79638
H 11.85006 2.71049 5.68175
H 13.86391 1.81961 1.70469
H 14.15040 0.04294 1.62369
H 15.27970 1.00905 4.05244
H 15.49114 2.29741 2.92094
H 10.53095 6.14813 1.86848
H 9.05551 6.96618 1.47728
H 10.26271 6.76826 0.18489
H 7.75114 7.56184 -0.23129
H 7.01619 7.58004 -1.93606
H 8.68744 7.03509 -1.61454
H 4.63656 1.18144 -1.74006
H 4.34609 -1.24017 -0.03472
H 2.81141 1.70706 -0.50651
H 3.90285 1.82434 0.91864
H 3.11749 0.36422 0.59171
H 3.79328 -1.16626 -2.49658
H 4.73519 -2.55595 -1.99009
H 5.42441 -0.14199 -3.50001
H 5.87699 -1.84287 -3.88340
H 6.76586 -0.88030 -2.61940
H 8.85205 -5.58428 0.76648
H 7.23978 -4.84206 0.50988
H 7.88289 -4.98615 2.19449
H 12.05508 -2.50192 3.84557
H 16.18644 -3.68511 3.50667
H 16.26523 -1.85496 3.09643
H 15.97644 -3.16102 1.92040

