%nproc=24
%mem=175gb
#p cam-b3lyp/Def2SVP td=(nstates=5)

TDDFT excited states in gaussian

0 1
Mg 7.88378 0.71443 0.60830
C 6.24005 -1.70532 2.68724
C 5.48820 2.94509 1.56742
C 9.03796 2.73150 -1.55196
C 9.42094 -1.94685 -1.03501
N 6.14172 0.52575 1.95806
C 5.65215 -0.42431 2.74041
C 4.51676 0.04526 3.68906
C 4.00773 1.31345 2.84557
C 5.29843 1.64458 2.09918
C 2.93971 0.96597 1.82189
C 5.05485 0.47218 5.09981
C 3.97802 0.64656 6.17302
H 4.29832 0.27215 7.54769
N 7.66124 2.67909 0.43756
C 6.63952 3.42604 0.90599
C 6.93514 4.80976 0.50341
C 8.13072 4.79525 -0.38264
C 8.31458 3.36803 -0.55391
C 6.16445 5.98982 1.02005
C 8.96226 5.88564 -0.98745
O 9.81074 5.64781 -1.91822
C 8.68758 7.25346 -0.52364
N 8.89296 0.43187 -1.18727
C 9.32990 1.48012 -1.90711
C 10.26228 1.03490 -3.00841
C 10.55234 -0.51233 -2.72644
C 9.62632 -0.72562 -1.50891
C 9.73610 1.20228 -4.43371
C 12.04110 -0.93880 -2.60647
C 12.65186 -0.33629 -1.36174
N 8.00289 -1.42494 0.88575
C 8.67960 -2.35495 0.06647
C 8.37661 -3.70119 0.59398
C 7.51929 -3.46040 1.67820
C 7.28709 -2.06409 1.80422
C 8.83550 -4.93210 0.04590
C 6.74946 -4.07068 2.73820
O 6.62888 -5.21381 3.17688
C 5.78600 -2.97049 3.36089
C 5.90069 -3.04675 4.85873
O 6.96918 -2.75894 5.42628
O 4.67687 -3.23455 5.38538
C 4.73729 -3.30571 6.86966
H 4.66191 3.65429 1.62373
H 9.54784 3.39078 -2.25826
H 9.94014 -2.82192 -1.43170
H 3.70866 -0.66499 3.81675
H 3.72383 2.13428 3.49903
H 2.78343 -0.10003 1.74869
H 3.29549 1.36178 0.87966
H 2.01431 1.50471 2.04491
H 5.43173 1.50148 5.04281
H 5.80244 -0.21462 5.44626
H 3.01885 0.20986 5.86933
H 3.76491 1.71286 6.28074
H 5.24058 5.67807 1.52272
H 5.82111 6.55474 0.14664
H 6.76994 6.64555 1.64939
H 7.64664 7.49915 -0.71994
H 9.44124 7.88138 -1.00280
H 8.81930 7.28728 0.56361
H 11.19693 1.58071 -2.96803
H 10.16469 -1.15298 -3.53213
H 10.39525 1.81985 -5.07261
H 8.74438 1.63179 -4.38321
H 9.55828 0.27310 -4.97243
H 12.61511 -0.55225 -3.45219
H 12.18203 -2.01431 -2.58628
H 12.92850 0.67152 -1.68560
H 13.52594 -0.90463 -1.05028
H 11.90422 -0.23344 -0.56669
H 9.14565 -5.54777 0.87971
H 9.65022 -4.77477 -0.65784
H 7.92445 -5.27599 -0.45109
H 4.77436 -3.18802 3.01616
H 4.27267 -4.25206 7.16333
H 4.26010 -2.37618 7.23299
H 5.71507 -3.39909 7.32757

