%nproc=24
%mem=175gb
#p cam-b3lyp/Def2SVP td=(nstates=5)

TDDFT excited states in gaussian

0 1
Mg 7.87670 0.71362 0.60628
C 5.50486 -1.96034 0.92778
C 5.26689 2.72198 -0.28255
C 9.98815 2.96770 -0.12059
C 10.37190 -1.71045 0.39762
N 5.71180 0.31659 0.38758
C 4.91669 -0.72201 0.59606
C 3.40074 -0.39720 0.51890
C 3.48183 0.90957 -0.41096
C 4.89430 1.37232 -0.05959
C 3.43827 0.59446 -1.89695
C 2.78838 -0.06471 1.92477
C 1.25897 -0.04112 1.97076
H 0.59162 -0.51442 3.18035
N 7.63919 2.67091 0.38003
C 6.50568 3.31900 0.03884
C 6.85893 4.74604 -0.01543
C 8.33135 4.87180 0.16025
C 8.72114 3.47647 0.12514
C 5.83230 5.83434 -0.13819
C 9.23990 6.05312 0.31909
O 10.51282 5.94193 0.21837
C 8.59077 7.35936 0.50306
N 9.85966 0.64079 -0.01411
C 10.56440 1.76890 -0.21072
C 12.03464 1.47052 -0.38320
C 12.20450 -0.07741 -0.01901
C 10.72415 -0.44379 0.22540
C 12.60739 1.73116 -1.77619
C 13.24468 -0.43212 1.07866
C 12.78094 0.09321 2.41820
N 7.98356 -1.43218 0.83465
C 9.12367 -2.25078 0.67933
C 8.67630 -3.65164 0.82034
C 7.29217 -3.55116 1.02664
C 6.90115 -2.18529 0.99490
C 9.50310 -4.80456 0.70501
C 6.07131 -4.29059 1.25346
O 5.79692 -5.47198 1.46026
C 4.84041 -3.30120 1.07349
C 3.91079 -3.49949 2.23925
O 4.27124 -3.20455 3.39237
O 2.68250 -3.79719 1.77767
C 1.72224 -3.99216 2.89646
H 4.55959 3.37837 -0.79025
H 10.77466 3.71157 -0.26733
H 11.10449 -2.51912 0.44288
H 2.79699 -1.15812 0.03904
H 2.75037 1.65486 -0.10951
H 3.47911 -0.46817 -2.08482
H 4.29948 1.08821 -2.32773
H 2.56220 1.06164 -2.35583
H 2.99988 0.98442 2.16840
H 3.16203 -0.73761 2.67190
H 0.81268 -0.50096 1.08064
H 0.92658 0.99903 1.93031
H 4.85011 5.43147 -0.41459
H 6.12285 6.45291 -0.99423
H 5.77872 6.46516 0.75168
H 7.94518 7.56479 -0.34752
H 9.40250 8.06562 0.68791
H 7.94241 7.30674 1.38480
H 12.63184 2.06020 0.30145
H 12.53479 -0.66640 -0.88724
H 13.46038 2.43576 -1.77258
H 11.81141 2.10092 -2.40882
H 12.93630 0.84346 -2.31379
H 14.19939 0.05584 0.86754
H 13.43848 -1.49628 1.16234
H 13.10360 1.13849 2.39847
H 13.25860 -0.45205 3.22972
H 11.68686 0.08718 2.48596
H 9.22042 -5.47201 1.50819
H 10.55818 -4.54393 0.75637
H 9.21430 -5.15290 -0.29024
H 4.36254 -3.54229 0.12318
H 1.27775 -4.98378 2.76685
H 1.03753 -3.12418 2.85716
H 2.12888 -4.07191 3.89783

