%nproc=24
%mem=175gb
#p cam-b3lyp/Def2SVP td=(nstates=5)

TDDFT excited states in gaussian

0 1
Mg 0.00000 0.00000 0.00000
C -0.21700 -2.21800 2.80100
C -1.25500 2.44200 2.02600
C -0.24500 1.85000 -2.56400
C 0.14600 -2.82400 -2.03700
N -0.61700 -0.00900 2.12600
C -0.59400 -0.90800 3.10500
C -0.93600 -0.30900 4.50200
C -1.77300 0.96400 4.03200
C -1.15500 1.16800 2.66000
C -3.26300 0.68500 3.86300
C 0.34500 0.11000 5.29900
C 0.12400 0.39700 6.78700
H 1.16800 0.03300 7.73300
N -0.18500 1.96100 -0.15200
C -0.70300 2.80000 0.77700
C -0.62000 4.15600 0.19300
C -0.18700 4.01500 -1.22500
C -0.21400 2.58300 -1.38000
C -0.88700 5.40600 0.97400
C 0.18100 5.01300 -2.27700
O 0.30300 4.69000 -3.50800
C 0.31000 6.41400 -1.83700
N -0.26500 -0.41300 -2.02900
C -0.27900 0.56900 -2.93700
C -0.19600 0.02400 -4.33200
C 0.12400 -1.53300 -4.18000
C 0.08600 -1.63200 -2.63500
C -1.45100 0.20500 -5.19700
C 1.37300 -2.07000 -4.92300
C 2.62600 -1.49000 -4.30600
N 0.15000 -2.14400 0.30300
C 0.17300 -3.13600 -0.68800
C 0.17300 -4.43800 0.00400
C 0.13300 -4.11100 1.35800
C 0.08300 -2.69500 1.50200
C 0.14900 -5.71500 -0.62300
C 0.09600 -4.62900 2.71600
O 0.20800 -5.74700 3.22100
C -0.25500 -3.42800 3.70100
C 0.71700 -3.48200 4.84800
O 1.93100 -3.25500 4.66900
O 0.03800 -3.55600 6.00300
C 0.94300 -3.58300 7.18300
H -1.85900 3.22000 2.49700
H -0.21800 2.45300 -3.47400
H 0.27600 -3.74700 -2.60500
H -1.55400 -0.94900 5.13200
H -1.58500 1.83100 4.66500
H -3.48400 -0.37700 3.96900
H -3.51100 1.02700 2.85800
H -3.85200 1.30100 4.54300
H 0.66900 1.09600 4.96600
H 1.13000 -0.63900 5.18900
H -0.84400 0.02600 7.12500
H 0.06200 1.47700 6.92100
H -1.34400 5.18600 1.93800
H -1.65100 5.96300 0.43200
H 0.00700 6.02000 1.08400
H -0.63500 6.74400 -1.40500
H 0.66500 6.97000 -2.70400
H 1.04800 6.46600 -1.03600
H 0.60800 0.50100 -4.89100
H -0.69200 -2.15600 -4.54700
H -1.26700 0.74000 -6.12900
H -2.20400 0.71400 -4.59600
H -1.96700 -0.72000 -5.45300
H 1.35600 -1.75900 -5.96700
H 1.45200 -3.15700 -4.90200
H 2.71400 -0.52200 -4.79800
H 3.48700 -2.12100 -4.52900
H 2.49500 -1.30300 -3.24000
H 0.86700 -6.33300 -0.08400
H 0.40400 -5.64200 -1.68000
H -0.89100 -5.99900 -0.46300
H -1.28300 -3.58100 4.02800
H 0.69800 -4.47800 7.75500
H 0.83300 -2.61900 7.68000
H 2.00000 -3.75400 6.97600
Mg 7.89050 0.71420 0.59268
C 7.31765 4.18901 1.28307
C 7.19359 1.40217 -2.67468
C 7.94553 -2.40739 0.02694
C 7.41815 0.10400 3.99124
N 7.34091 2.59168 -0.43945
C 7.21363 3.86150 -0.08491
C 7.04039 4.84649 -1.27207
C 6.45026 3.81725 -2.35433
C 7.05726 2.52284 -1.81699
C 4.93663 3.69227 -2.30313
C 8.40567 5.45785 -1.74561
C 8.28091 6.65507 -2.69052
H 9.26550 7.72859 -2.58757
N 8.09324 -0.27831 -1.11389
C 7.78253 0.15987 -2.35193
C 8.09745 -0.95151 -3.26288
C 8.46422 -2.13920 -2.44459
C 8.15501 -1.64969 -1.11611
C 8.11098 -0.80063 -4.75635
C 8.99223 -3.49603 -2.80012
O 9.01473 -4.45407 -1.94895
C 9.39531 -3.69659 -4.19969
N 7.50052 -0.94227 1.78698
C 7.64947 -2.18999 1.30850
C 7.58223 -3.21154 2.41859
C 7.59892 -2.37004 3.77843
C 7.58219 -0.94129 3.19210
C 6.36080 -4.13040 2.40398
C 8.69748 -2.73051 4.81569
C 10.05981 -2.36203 4.27378
N 7.63169 1.91828 2.36786
C 7.42413 1.45930 3.68708
C 7.18831 2.64935 4.53004
C 7.25272 3.72503 3.63157
C 7.49041 3.23813 2.31783
C 6.90700 2.63793 5.92534
C 7.16311 5.16092 3.49407
O 7.06094 6.10392 4.27767
C 7.07534 5.51595 1.94725
C 8.05065 6.62689 1.66961
O 9.27408 6.43850 1.78929
O 7.39599 7.65646 1.10236
C 8.32316 8.77877 0.79808
H 6.77248 1.46291 -3.67860
H 8.06398 -3.48660 -0.09449
H 7.36023 0.00509 5.07731
H 6.33320 5.64846 -1.09744
H 6.82895 4.03123 -3.35041
H 4.51615 4.22904 -1.46574
H 4.73170 2.63335 -2.21517
H 4.50007 4.00561 -3.25580
H 8.90577 4.74361 -2.41233
H 9.01635 5.72334 -0.90465
H 7.26412 7.06607 -2.70307
H 8.44223 6.30772 -3.71392
H 7.63931 0.13881 -5.07003
H 7.45841 -1.58105 -5.16251
H 9.10963 -0.91785 -5.18252
H 8.54646 -3.50320 -4.85123
H 9.82854 -4.69794 -4.23840
H 10.16157 -2.95536 -4.45273
H 8.44739 -3.86283 2.39772
H 6.66236 -2.48910 4.34280
H 6.62317 -5.20471 2.37102
H 5.74312 -3.86365 1.55672
H 5.67524 -4.00060 3.23966
H 8.71423 -3.80913 4.99022
H 8.55662 -2.25065 5.77844
H 10.31713 -3.22166 3.64774
H 10.77385 -2.23690 5.08527
H 9.99900 -1.48440 3.61978
H 7.49816 3.42820 6.36861
H 7.13685 1.67161 6.36937
H 5.83212 2.83703 5.90923
H 6.04689 5.81197 1.73692
H 7.91986 9.66889 1.29075
H 8.40590 8.80732 -0.30468
H 9.31930 8.73510 1.22264

