%nproc=24
%mem=175gb
#p cam-b3lyp/Def2SVP td=(nstates=5)

TDDFT excited states in gaussian

0 1
Mg 15.77263 1.42728 1.20080
C 15.30660 1.29765 4.75679
C 14.59298 4.62579 1.31298
C 15.74507 1.42289 -1.97200
C 15.81585 -2.05747 1.21908
N 15.07275 2.68826 2.87781
C 14.99891 2.55358 4.19339
C 14.64868 3.86002 4.95504
C 13.90388 4.63982 3.76506
C 14.58578 3.97359 2.57182
C 12.41515 4.34398 3.69082
C 15.92695 4.63235 5.43625
C 15.66080 5.74862 6.44859
H 16.64871 5.98741 7.49716
N 15.71806 2.93791 -0.08512
C 15.22481 4.17497 0.13320
C 15.40057 4.90701 -1.13068
C 15.88700 3.95133 -2.16256
C 15.78006 2.70199 -1.43605
C 15.18984 6.38857 -1.24898
C 16.35697 4.13047 -3.57438
O 16.50774 3.13336 -4.36550
C 16.54579 5.51488 -4.03180
N 15.56769 -0.09032 -0.20534
C 15.64434 0.17208 -1.52185
C 15.74528 -1.10152 -2.32693
C 15.96494 -2.26978 -1.25711
C 15.85915 -1.44452 0.04410
C 14.53632 -1.43331 -3.20141
C 17.20695 -3.18123 -1.45540
C 18.47227 -2.38664 -1.22521
N 15.78186 -0.12021 2.70853
C 15.77489 -1.51649 2.49777
C 15.66706 -2.15657 3.82484
C 15.59502 -1.07943 4.72098
C 15.63345 0.14549 4.00153
C 15.59819 -3.55706 4.06981
C 15.48448 -0.70011 6.11116
O 15.50011 -1.30725 7.18114
C 15.16541 0.85516 6.18679
C 16.08703 1.46943 7.20453
O 17.31475 1.49976 7.00859
O 15.35376 2.10998 8.13317
C 16.22378 2.74510 9.15860
H 14.02602 5.55084 1.20468
H 15.84495 1.36394 -3.05829
H 15.92155 -3.14002 1.31701
H 13.97495 3.73033 5.79351
H 14.12871 5.70297 3.78799
H 12.12451 3.56430 4.37914
H 12.22671 4.03730 2.67029
H 11.84038 5.26244 3.84053
H 16.32206 5.22581 4.60172
H 16.65659 3.95257 5.83141
H 14.65324 5.68475 6.87720
H 15.66714 6.70506 5.92018
H 14.67561 6.79330 -0.36855
H 14.48446 6.54650 -2.07200
H 16.11340 6.92935 -1.46640
H 15.60865 6.05799 -3.93559
H 16.96924 5.43600 -5.03497
H 17.26476 6.00772 -3.36786
H 16.59812 -1.07086 -2.99388
H 15.12371 -2.97837 -1.24909
H 14.79177 -1.55616 -4.27086
H 13.79831 -0.65251 -3.07399
H 13.98371 -2.32383 -2.90678
H 17.25068 -3.54290 -2.48566
H 17.21162 -4.05179 -0.80801
H 18.63358 -1.89479 -2.18914
H 19.29982 -3.04779 -0.97607
H 18.31327 -1.60143 -0.47701
H 16.24842 -3.75838 4.91075
H 15.89292 -4.12910 3.19250
H 14.53287 -3.66423 4.29087
H 14.11678 0.96118 6.46733
H 15.89811 2.36688 10.13255
H 16.14019 3.83487 8.98783
H 17.27236 2.47145 9.16532

