%nproc=24
%mem=175gb
#p cam-b3lyp/Def2SVP td=(nstates=5)

TDDFT excited states in gaussian

0 1
Mg 0.00000 0.00000 0.00000
C -0.21700 -2.21800 2.80100
C -1.25500 2.44200 2.02600
C -0.24500 1.85000 -2.56400
C 0.14600 -2.82400 -2.03700
N -0.61700 -0.00900 2.12600
C -0.59400 -0.90800 3.10500
C -0.93600 -0.30900 4.50200
C -1.77300 0.96400 4.03200
C -1.15500 1.16800 2.66000
C -3.26300 0.68500 3.86300
C 0.34500 0.11000 5.29900
C 0.12400 0.39700 6.78700
H 1.16800 0.03300 7.73300
N -0.18500 1.96100 -0.15200
C -0.70300 2.80000 0.77700
C -0.62000 4.15600 0.19300
C -0.18700 4.01500 -1.22500
C -0.21400 2.58300 -1.38000
C -0.88700 5.40600 0.97400
C 0.18100 5.01300 -2.27700
O 0.30300 4.69000 -3.50800
C 0.31000 6.41400 -1.83700
N -0.26500 -0.41300 -2.02900
C -0.27900 0.56900 -2.93700
C -0.19600 0.02400 -4.33200
C 0.12400 -1.53300 -4.18000
C 0.08600 -1.63200 -2.63500
C -1.45100 0.20500 -5.19700
C 1.37300 -2.07000 -4.92300
C 2.62600 -1.49000 -4.30600
N 0.15000 -2.14400 0.30300
C 0.17300 -3.13600 -0.68800
C 0.17300 -4.43800 0.00400
C 0.13300 -4.11100 1.35800
C 0.08300 -2.69500 1.50200
C 0.14900 -5.71500 -0.62300
C 0.09600 -4.62900 2.71600
O 0.20800 -5.74700 3.22100
C -0.25500 -3.42800 3.70100
C 0.71700 -3.48200 4.84800
O 1.93100 -3.25500 4.66900
O 0.03800 -3.55600 6.00300
C 0.94300 -3.58300 7.18300
H -1.85900 3.22000 2.49700
H -0.21800 2.45300 -3.47400
H 0.27600 -3.74700 -2.60500
H -1.55400 -0.94900 5.13200
H -1.58500 1.83100 4.66500
H -3.48400 -0.37700 3.96900
H -3.51100 1.02700 2.85800
H -3.85200 1.30100 4.54300
H 0.66900 1.09600 4.96600
H 1.13000 -0.63900 5.18900
H -0.84400 0.02600 7.12500
H 0.06200 1.47700 6.92100
H -1.34400 5.18600 1.93800
H -1.65100 5.96300 0.43200
H 0.00700 6.02000 1.08400
H -0.63500 6.74400 -1.40500
H 0.66500 6.97000 -2.70400
H 1.04800 6.46600 -1.03600
H 0.60800 0.50100 -4.89100
H -0.69200 -2.15600 -4.54700
H -1.26700 0.74000 -6.12900
H -2.20400 0.71400 -4.59600
H -1.96700 -0.72000 -5.45300
H 1.35600 -1.75900 -5.96700
H 1.45200 -3.15700 -4.90200
H 2.71400 -0.52200 -4.79800
H 3.48700 -2.12100 -4.52900
H 2.49500 -1.30300 -3.24000
H 0.86700 -6.33300 -0.08400
H 0.40400 -5.64200 -1.68000
H -0.89100 -5.99900 -0.46300
H -1.28300 -3.58100 4.02800
H 0.69800 -4.47800 7.75500
H 0.83300 -2.61900 7.68000
H 2.00000 -3.75400 6.97600
Mg 10.51149 0.93895 0.80609
C 8.01198 2.12829 3.09016
C 12.77705 1.30233 3.32993
C 12.80555 0.32768 -1.29891
C 8.32893 1.74977 -1.78712
N 10.30029 1.63359 2.89538
C 9.29119 2.00118 3.67058
C 9.65931 2.16878 5.16924
C 11.23207 2.44620 5.00096
C 11.46793 1.72122 3.67754
C 11.56656 3.91580 4.80673
C 9.39169 0.86479 5.99991
C 9.43515 1.04936 7.51840
H 8.51877 0.26491 8.34141
N 12.39047 0.36428 1.08492
C 13.15207 0.57514 2.17889
C 14.46168 -0.02414 1.87899
C 14.46301 -0.46073 0.45628
C 13.19947 0.09101 0.01005
C 15.52928 -0.20860 2.91805
C 15.44557 -1.23436 -0.36973
O 15.35225 -1.29394 -1.64667
C 16.57310 -1.84252 0.35159
N 10.65056 1.21980 -1.24918
C 11.73847 0.81827 -1.92975
C 11.49969 0.87047 -3.41993
C 9.93692 1.16168 -3.59469
C 9.54204 1.32306 -2.11030
C 12.30187 1.92233 -4.18575
C 9.12895 0.16517 -4.47037
C 9.06019 -1.18247 -3.78879
N 8.46387 1.61025 0.64905
C 7.75419 1.91429 -0.53332
C 6.43474 2.43945 -0.12630
C 6.47730 2.42598 1.27602
C 7.74199 1.94660 1.71218
C 5.41309 2.89496 -1.00657
C 5.74383 2.71830 2.48650
O 4.59167 3.06656 2.74142
C 6.75092 2.65772 3.71471
C 6.10974 1.83857 4.80117
O 5.88718 0.62687 4.63128
O 6.06483 2.56530 5.93263
C 5.44707 1.79157 7.04239
H 13.60415 1.59333 3.97809
H 13.52138 0.02865 -2.06811
H 7.55562 1.93267 -2.53626
H 9.18435 3.00834 5.66252
H 11.80320 1.97873 5.79886
H 10.67837 4.51985 4.69540
H 12.17156 3.96388 3.91079
H 12.20594 4.26774 5.62139
H 10.23756 0.17752 5.86989
H 8.45875 0.41747 5.71682
H 9.40054 2.10715 7.80621
H 10.40597 0.70422 7.88227
H 15.30497 0.35799 3.83023
H 16.44038 0.25662 2.52647
H 15.73280 -1.26026 3.13077
H 17.13179 -1.06617 0.86889
H 17.11581 -2.42698 -0.39390
H 16.17511 -2.51103 1.12315
H 11.73386 -0.08041 -3.88265
H 9.75493 2.13394 -4.07577
H 12.91754 1.49464 -4.99945
H 12.92305 2.45817 -3.48037
H 11.71068 2.72269 -4.62746
H 9.63458 0.00437 -5.42568
H 8.12202 0.50290 -4.69178
H 10.00938 -1.64922 -4.06856
H 8.21356 -1.75661 -4.15975
H 9.05593 -1.07215 -2.69817
H 4.47942 2.49623 -0.63271
H 5.60004 2.57799 -2.03046
H 5.51938 3.97633 -0.88573
H 6.94100 3.68334 4.03339
H 4.61218 2.38863 7.42207
H 6.27049 1.57129 7.74752
H 4.94613 0.86461 6.78892

