%nproc=24
%mem=175gb
#p cam-b3lyp/Def2SVP td=(nstates=5)

TDDFT excited states in gaussian

0 1
Mg 7.88515 0.71803 0.60507
C 9.25618 -0.91533 3.49151
C 5.44522 1.94947 2.64588
C 6.40216 1.79676 -1.98423
C 9.70867 -1.51521 -1.35277
N 7.50721 0.47793 2.77112
C 8.13023 -0.11560 3.77805
C 7.55955 0.22847 5.18001
C 6.07132 0.64058 4.73932
C 6.35523 1.08577 3.30619
C 5.11009 -0.53552 4.69257
C 8.31238 1.42911 5.85360
C 8.01571 1.62017 7.34264
H 9.09334 2.08157 8.21344
N 6.47850 2.10500 0.41482
C 5.58881 2.49549 1.35143
C 4.75772 3.52703 0.71161
C 5.12271 3.59621 -0.72947
C 6.02028 2.46281 -0.82877
C 3.79206 4.38430 1.47713
C 4.71943 4.52073 -1.83800
O 4.97368 4.25181 -3.06514
C 3.93631 5.70385 -1.45272
N 7.86414 0.08399 -1.37480
C 7.17735 0.76245 -2.31072
C 7.53058 0.28553 -3.69931
C 8.78177 -0.69279 -3.51224
C 8.88364 -0.68151 -1.97117
C 6.42084 -0.44647 -4.45365
C 10.05642 -0.37129 -4.33963
C 10.67253 0.92203 -3.85682
N 9.38027 -0.80050 0.96109
C 9.99262 -1.63618 0.00153
C 10.85503 -2.58399 0.73662
C 10.66533 -2.24624 2.08511
C 9.73391 -1.17758 2.18470
C 11.63515 -3.62243 0.15425
C 11.03312 -2.55776 3.44760
O 11.84937 -3.31130 3.97641
C 10.04082 -1.79354 4.42623
C 10.86399 -1.12332 5.49192
O 11.64729 -0.20257 5.19991
O 10.43383 -1.52826 6.70079
C 11.21250 -0.88222 7.79080
H 4.51101 2.20121 3.14864
H 6.00301 2.20308 -2.91646
H 10.38459 -2.17835 -1.89688
H 7.52514 -0.60349 5.87315
H 5.70057 1.47355 5.33099
H 5.61655 -1.47626 4.84959
H 4.65927 -0.50806 3.70919
H 4.29275 -0.38283 5.40319
H 7.90940 2.37089 5.45939
H 9.37136 1.34710 5.70375
H 7.51652 0.74642 7.77890
H 7.28670 2.42696 7.45051
H 3.61900 3.99205 2.48687
H 2.82018 4.29327 0.98011
H 4.08383 5.43658 1.49275
H 3.02390 5.38616 -0.95366
H 3.82012 6.28803 -2.36766
H 4.51145 6.28061 -0.71980
H 7.82464 1.11543 -4.33010
H 8.53883 -1.72524 -3.80356
H 6.17486 0.01821 -5.42712
H 5.54542 -0.48595 -3.81912
H 6.61246 -1.50023 -4.64877
H 9.79742 -0.21850 -5.39022
H 10.80440 -1.15627 -4.30322
H 10.09245 1.68423 -4.38564
H 11.72547 0.96916 -4.12727
H 10.50097 1.06305 -2.78336
H 12.59757 -3.60314 0.64809
H 11.73629 -3.48856 -0.92075
H 11.02042 -4.49144 0.40364
H 9.35653 -2.53381 4.84253
H 11.61999 -1.68586 8.41193
H 10.51526 -0.17415 8.27684
H 12.11523 -0.35013 7.51438

