%nproc=24
%mem=175gb
#p cam-b3lyp/Def2SVP td=(nstates=5)

TDDFT excited states in gaussian

0 1
Mg 0.00000 0.00000 0.00000
C -0.21700 -2.21800 2.80100
C -1.25500 2.44200 2.02600
C -0.24500 1.85000 -2.56400
C 0.14600 -2.82400 -2.03700
N -0.61700 -0.00900 2.12600
C -0.59400 -0.90800 3.10500
C -0.93600 -0.30900 4.50200
C -1.77300 0.96400 4.03200
C -1.15500 1.16800 2.66000
C -3.26300 0.68500 3.86300
C 0.34500 0.11000 5.29900
C 0.12400 0.39700 6.78700
H 1.16800 0.03300 7.73300
N -0.18500 1.96100 -0.15200
C -0.70300 2.80000 0.77700
C -0.62000 4.15600 0.19300
C -0.18700 4.01500 -1.22500
C -0.21400 2.58300 -1.38000
C -0.88700 5.40600 0.97400
C 0.18100 5.01300 -2.27700
O 0.30300 4.69000 -3.50800
C 0.31000 6.41400 -1.83700
N -0.26500 -0.41300 -2.02900
C -0.27900 0.56900 -2.93700
C -0.19600 0.02400 -4.33200
C 0.12400 -1.53300 -4.18000
C 0.08600 -1.63200 -2.63500
C -1.45100 0.20500 -5.19700
C 1.37300 -2.07000 -4.92300
C 2.62600 -1.49000 -4.30600
N 0.15000 -2.14400 0.30300
C 0.17300 -3.13600 -0.68800
C 0.17300 -4.43800 0.00400
C 0.13300 -4.11100 1.35800
C 0.08300 -2.69500 1.50200
C 0.14900 -5.71500 -0.62300
C 0.09600 -4.62900 2.71600
O 0.20800 -5.74700 3.22100
C -0.25500 -3.42800 3.70100
C 0.71700 -3.48200 4.84800
O 1.93100 -3.25500 4.66900
O 0.03800 -3.55600 6.00300
C 0.94300 -3.58300 7.18300
H -1.85900 3.22000 2.49700
H -0.21800 2.45300 -3.47400
H 0.27600 -3.74700 -2.60500
H -1.55400 -0.94900 5.13200
H -1.58500 1.83100 4.66500
H -3.48400 -0.37700 3.96900
H -3.51100 1.02700 2.85800
H -3.85200 1.30100 4.54300
H 0.66900 1.09600 4.96600
H 1.13000 -0.63900 5.18900
H -0.84400 0.02600 7.12500
H 0.06200 1.47700 6.92100
H -1.34400 5.18600 1.93800
H -1.65100 5.96300 0.43200
H 0.00700 6.02000 1.08400
H -0.63500 6.74400 -1.40500
H 0.66500 6.97000 -2.70400
H 1.04800 6.46600 -1.03600
H 0.60800 0.50100 -4.89100
H -0.69200 -2.15600 -4.54700
H -1.26700 0.74000 -6.12900
H -2.20400 0.71400 -4.59600
H -1.96700 -0.72000 -5.45300
H 1.35600 -1.75900 -5.96700
H 1.45200 -3.15700 -4.90200
H 2.71400 -0.52200 -4.79800
H 3.48700 -2.12100 -4.52900
H 2.49500 -1.30300 -3.24000
H 0.86700 -6.33300 -0.08400
H 0.40400 -5.64200 -1.68000
H -0.89100 -5.99900 -0.46300
H -1.28300 -3.58100 4.02800
H 0.69800 -4.47800 7.75500
H 0.83300 -2.61900 7.68000
H 2.00000 -3.75400 6.97600
Mg 15.77375 1.41941 1.20518
C 14.08590 -0.33191 3.84394
C 16.04341 4.06781 3.33775
C 16.85672 3.14210 -1.22936
C 14.38304 -0.87505 -1.01901
N 15.11175 1.70918 3.29564
C 14.53512 0.95207 4.21684
C 14.50632 1.57720 5.63738
C 14.61144 3.12468 5.22128
C 15.33182 2.96967 3.88349
C 13.26072 3.77185 4.96426
C 15.73162 1.13277 6.51095
C 15.60867 1.45420 8.00204
H 16.17333 0.51348 8.96571
N 16.79270 3.12238 1.18969
C 16.80467 4.07222 2.14830
C 17.69280 5.13440 1.65114
C 18.07390 4.80948 0.24975
C 17.22059 3.66441 0.00326
C 18.16039 6.27276 2.51075
C 19.03648 5.43470 -0.71396
O 19.03342 5.13326 -1.95974
C 19.91998 6.47839 -0.17394
N 15.47315 1.30277 -0.84869
C 16.10455 2.14175 -1.68855
C 15.95159 1.69516 -3.12297
C 15.28699 0.24228 -3.05205
C 15.07980 0.13302 -1.52545
C 15.10171 2.60032 -4.01448
C 16.03249 -0.90899 -3.78107
C 17.34361 -1.19666 -3.08566
N 14.62407 -0.40273 1.36665
C 14.12250 -1.19147 0.30816
C 13.30712 -2.26450 0.91329
C 13.37256 -2.01001 2.29149
C 14.15565 -0.84782 2.52723
C 12.59245 -3.26846 0.20093
C 12.94847 -2.45409 3.59978
O 12.34046 -3.43341 4.02989
C 13.28698 -1.31431 4.65464
C 13.95958 -1.95915 5.83544
O 15.07618 -2.49285 5.71309
O 13.27779 -1.65058 6.95362
C 13.91267 -2.25834 8.15335
H 15.98006 5.03085 3.84513
H 17.29630 3.63595 -2.09905
H 13.99664 -1.68711 -1.63864
H 13.59220 1.40259 6.19208
H 15.22659 3.68155 5.92331
H 12.45725 3.05077 4.98894
H 13.33308 4.22425 3.98388
H 13.09799 4.59569 5.66507
H 16.59837 1.75577 6.25531
H 15.93205 0.08690 6.38208
H 14.58289 1.72249 8.28264
H 16.18850 2.35638 8.21151
H 17.58409 6.33672 3.44198
H 17.91707 7.19765 1.97668
H 19.23599 6.24516 2.69778
H 19.31717 7.28201 0.24232
H 20.59541 6.74080 -0.99052
H 20.49565 6.05429 0.65635
H 16.91653 1.61688 -3.60861
H 14.28555 0.22968 -3.50679
H 15.64061 2.96011 -4.91125
H 14.75292 3.43447 -3.42028
H 14.16951 2.16019 -4.36447
H 16.28171 -0.61166 -4.80266
H 15.45541 -1.82550 -3.84412
H 18.01687 -0.44434 -3.50734
H 17.68523 -2.20427 -3.31381
H 17.26832 -1.00518 -2.00895
H 12.76529 -4.20156 0.72049
H 12.91425 -3.32485 -0.83687
H 11.57276 -2.88534 0.29427
H 12.34752 -0.83388 4.93063
H 13.14357 -2.85411 8.65459
H 14.34609 -1.41419 8.72195
H 14.68343 -3.00242 7.98984

