%nproc=24
%mem=175gb
#p cam-b3lyp/Def2SVP td=(nstates=5)

TDDFT excited states in gaussian

0 1
Mg 0.00000 0.00000 0.00000
C -0.21700 -2.21800 2.80100
C -1.25500 2.44200 2.02600
C -0.24500 1.85000 -2.56400
C 0.14600 -2.82400 -2.03700
N -0.61700 -0.00900 2.12600
C -0.59400 -0.90800 3.10500
C -0.93600 -0.30900 4.50200
C -1.77300 0.96400 4.03200
C -1.15500 1.16800 2.66000
C -3.26300 0.68500 3.86300
C 0.34500 0.11000 5.29900
C 0.12400 0.39700 6.78700
H 1.16800 0.03300 7.73300
N -0.18500 1.96100 -0.15200
C -0.70300 2.80000 0.77700
C -0.62000 4.15600 0.19300
C -0.18700 4.01500 -1.22500
C -0.21400 2.58300 -1.38000
C -0.88700 5.40600 0.97400
C 0.18100 5.01300 -2.27700
O 0.30300 4.69000 -3.50800
C 0.31000 6.41400 -1.83700
N -0.26500 -0.41300 -2.02900
C -0.27900 0.56900 -2.93700
C -0.19600 0.02400 -4.33200
C 0.12400 -1.53300 -4.18000
C 0.08600 -1.63200 -2.63500
C -1.45100 0.20500 -5.19700
C 1.37300 -2.07000 -4.92300
C 2.62600 -1.49000 -4.30600
N 0.15000 -2.14400 0.30300
C 0.17300 -3.13600 -0.68800
C 0.17300 -4.43800 0.00400
C 0.13300 -4.11100 1.35800
C 0.08300 -2.69500 1.50200
C 0.14900 -5.71500 -0.62300
C 0.09600 -4.62900 2.71600
O 0.20800 -5.74700 3.22100
C -0.25500 -3.42800 3.70100
C 0.71700 -3.48200 4.84800
O 1.93100 -3.25500 4.66900
O 0.03800 -3.55600 6.00300
C 0.94300 -3.58300 7.18300
H -1.85900 3.22000 2.49700
H -0.21800 2.45300 -3.47400
H 0.27600 -3.74700 -2.60500
H -1.55400 -0.94900 5.13200
H -1.58500 1.83100 4.66500
H -3.48400 -0.37700 3.96900
H -3.51100 1.02700 2.85800
H -3.85200 1.30100 4.54300
H 0.66900 1.09600 4.96600
H 1.13000 -0.63900 5.18900
H -0.84400 0.02600 7.12500
H 0.06200 1.47700 6.92100
H -1.34400 5.18600 1.93800
H -1.65100 5.96300 0.43200
H 0.00700 6.02000 1.08400
H -0.63500 6.74400 -1.40500
H 0.66500 6.97000 -2.70400
H 1.04800 6.46600 -1.03600
H 0.60800 0.50100 -4.89100
H -0.69200 -2.15600 -4.54700
H -1.26700 0.74000 -6.12900
H -2.20400 0.71400 -4.59600
H -1.96700 -0.72000 -5.45300
H 1.35600 -1.75900 -5.96700
H 1.45200 -3.15700 -4.90200
H 2.71400 -0.52200 -4.79800
H 3.48700 -2.12100 -4.52900
H 2.49500 -1.30300 -3.24000
H 0.86700 -6.33300 -0.08400
H 0.40400 -5.64200 -1.68000
H -0.89100 -5.99900 -0.46300
H -1.28300 -3.58100 4.02800
H 0.69800 -4.47800 7.75500
H 0.83300 -2.61900 7.68000
H 2.00000 -3.75400 6.97600
Mg 10.51793 0.95266 0.79381
C 9.90092 4.02562 2.54175
C 9.70497 2.59848 -2.08107
C 10.61467 -1.83766 -0.71357
C 10.16509 -0.69257 3.84577
N 9.90018 3.04127 0.40865
C 9.75995 4.13489 1.14260
C 9.53044 5.43373 0.32412
C 8.92614 4.77398 -1.00945
C 9.57446 3.39432 -0.91501
C 7.41755 4.59700 -0.96300
C 10.86813 6.19960 0.03077
C 10.69068 7.62653 -0.49280
H 11.65734 8.64255 -0.08571
N 10.68550 0.54325 -1.14084
C 10.32746 1.33428 -2.17397
C 10.63457 0.56874 -3.39208
C 11.04968 -0.80317 -2.99173
C 10.77336 -0.75779 -1.56988
C 10.59796 1.17484 -4.76494
C 11.59200 -1.96797 -3.76330
O 11.65972 -3.14141 -3.25213
C 11.95436 -1.71408 -5.16534
N 10.19765 -1.00238 1.42436
C 10.35520 -2.03602 0.57896
C 10.34265 -3.35249 1.31865
C 10.38628 -2.97314 2.87164
C 10.32370 -1.43412 2.75805
C 9.13915 -4.25548 1.04922
C 11.52379 -3.60612 3.71904
C 12.86100 -3.05003 3.28543
N 10.29246 1.54034 2.86066
C 10.13554 0.68992 3.97701
C 9.90381 1.55349 5.15301
C 9.91920 2.85582 4.63129
C 10.12447 2.80636 3.22598
C 9.66706 1.10284 6.48229
C 9.79787 4.26064 4.94823
O 9.70254 4.91151 5.98795
C 9.65444 5.07445 3.59046
C 10.59907 6.24361 3.64769
O 11.82905 6.06172 3.67343
O 9.90723 7.37946 3.44382
C 10.80270 8.56631 3.48042
H 9.25122 2.95520 -3.00614
H 10.74981 -2.82252 -1.16664
H 10.14346 -1.12440 4.84863
H 8.81394 6.12215 0.75597
H 9.26897 5.29630 -1.89884
H 7.01360 4.83620 0.00950
H 7.23577 3.55757 -1.20296
H 6.94517 5.17751 -1.76062
H 11.36043 5.74110 -0.83650
H 11.49992 6.20870 0.89759
H 9.66633 7.99261 -0.35266
H 10.82615 7.61768 -1.57705
H 10.09874 2.15165 -4.76021
H 9.94789 0.54054 -5.37727
H 11.58468 1.22328 -5.23044
H 11.08178 -1.35232 -5.70403
H 12.40520 -2.64172 -5.52324
H 12.69793 -0.90979 -5.19438
H 11.21900 -3.94085 1.07587
H 9.47048 -3.28721 3.39368
H 9.42082 -5.25904 0.67828
H 8.48998 -3.75695 0.34170
H 8.47802 -4.40998 1.90024
H 11.56666 -4.68487 3.54988
H 11.40432 -3.45199 4.78626
H 13.11476 -3.66608 2.41758
H 13.59784 -3.16232 4.07820
H 12.76278 -2.01511 2.93763
H 10.25675 1.73330 7.13444
H 9.92927 0.05336 6.59894
H 8.58860 1.26700 6.55471
H 8.61438 5.39216 3.50726
H 10.39825 9.24855 4.23451
H 10.84995 8.93712 2.43926
H 11.81242 8.42124 3.84629

