%nproc=24
%mem=175gb
#p cam-b3lyp/Def2SVP td=(nstates=5)

TDDFT excited states in gaussian

0 1
Mg 8.93035 0.79759 0.68588
C 7.31172 3.07426 2.93886
C 10.86820 -0.19022 3.31334
C 10.67342 -0.88692 -1.36144
C 7.69504 2.73241 -1.93636
N 8.98745 1.43331 2.80363
C 8.28337 2.26202 3.55984
C 8.58515 2.16008 5.07908
C 10.06940 1.55362 4.98925
C 9.96678 0.85592 3.63450
C 11.14997 2.61819 4.89761
C 7.60790 1.17989 5.81815
C 7.64398 1.26615 7.34557
H 6.39864 1.07272 8.08325
N 10.18752 -0.70506 1.00227
C 10.87037 -0.96980 2.13581
C 11.67259 -2.16966 1.85132
C 11.53317 -2.49528 0.40589
C 10.79309 -1.33767 -0.05490
C 12.40531 -2.93035 2.91804
C 12.00101 -3.65037 -0.42663
O 11.97400 -3.61180 -1.70749
C 12.57835 -4.79073 0.29982
N 9.33207 1.02167 -1.34161
C 10.07820 0.11915 -2.00242
C 10.00238 0.33654 -3.49486
C 8.85315 1.42720 -3.71232
C 8.50980 1.73055 -2.23737
C 11.29083 0.81497 -4.16373
C 7.69672 1.04817 -4.67756
C 6.87338 -0.07118 -4.08210
N 7.57484 2.46864 0.49027
C 7.21695 3.14205 -0.69822
C 6.35978 4.28150 -0.31176
C 6.29677 4.20486 1.08776
C 7.07718 3.10793 1.54294
C 5.80037 5.24111 -1.20188
C 5.75615 4.80883 2.28428
O 4.95524 5.71388 2.51482
C 6.49182 4.17934 3.54481
C 5.44251 3.80078 4.55385
O 4.61798 2.90441 4.30231
O 5.71945 4.40314 5.72468
C 4.71266 4.04957 6.76062
H 11.67823 -0.40914 4.00963
H 11.16674 -1.50040 -2.11891
H 7.19043 3.32485 -2.70257
H 8.60190 3.10797 5.60349
H 10.24830 0.82857 5.77897
H 10.73218 3.60800 4.78862
H 11.74388 2.36063 4.03045
H 11.82358 2.54649 5.75636
H 7.96130 0.15000 5.67973
H 6.60123 1.31293 5.47239
H 8.16184 2.16748 7.69540
H 8.25337 0.44249 7.72536
H 12.45982 -2.35990 3.85346
H 13.44725 -3.01616 2.59112
H 12.00030 -3.93244 3.07438
H 13.43044 -4.45241 0.88457
H 12.77161 -5.55243 -0.45804
H 11.83506 -5.16352 1.01338
H 9.72125 -0.57666 -4.00490
H 9.25136 2.35892 -4.14031
H 11.63386 0.14824 -4.97729
H 12.05462 0.91133 -3.40354
H 11.24982 1.82057 -4.57879
H 8.09908 0.66978 -5.62047
H 7.04364 1.88069 -4.91711
H 7.44156 -0.96624 -4.35250
H 5.87733 -0.08875 -4.51984
H 6.85751 -0.00890 -2.98779
H 4.77614 5.39563 -0.88949
H 5.85523 4.90448 -2.23505
H 6.46045 6.09164 -1.01168
H 7.17972 4.93185 3.93221
H 4.30393 4.98999 7.14302
H 5.24236 3.40003 7.48261
H 3.81140 3.54531 6.43214

