%nproc=24
%mem=175gb
#p cam-b3lyp/Def2SVP td=(nstates=5)

TDDFT excited states in gaussian

0 1
Mg 0.00000 0.00000 0.00000
C -0.21700 -2.21800 2.80100
C -1.25500 2.44200 2.02600
C -0.24500 1.85000 -2.56400
C 0.14600 -2.82400 -2.03700
N -0.61700 -0.00900 2.12600
C -0.59400 -0.90800 3.10500
C -0.93600 -0.30900 4.50200
C -1.77300 0.96400 4.03200
C -1.15500 1.16800 2.66000
C -3.26300 0.68500 3.86300
C 0.34500 0.11000 5.29900
C 0.12400 0.39700 6.78700
H 1.16800 0.03300 7.73300
N -0.18500 1.96100 -0.15200
C -0.70300 2.80000 0.77700
C -0.62000 4.15600 0.19300
C -0.18700 4.01500 -1.22500
C -0.21400 2.58300 -1.38000
C -0.88700 5.40600 0.97400
C 0.18100 5.01300 -2.27700
O 0.30300 4.69000 -3.50800
C 0.31000 6.41400 -1.83700
N -0.26500 -0.41300 -2.02900
C -0.27900 0.56900 -2.93700
C -0.19600 0.02400 -4.33200
C 0.12400 -1.53300 -4.18000
C 0.08600 -1.63200 -2.63500
C -1.45100 0.20500 -5.19700
C 1.37300 -2.07000 -4.92300
C 2.62600 -1.49000 -4.30600
N 0.15000 -2.14400 0.30300
C 0.17300 -3.13600 -0.68800
C 0.17300 -4.43800 0.00400
C 0.13300 -4.11100 1.35800
C 0.08300 -2.69500 1.50200
C 0.14900 -5.71500 -0.62300
C 0.09600 -4.62900 2.71600
O 0.20800 -5.74700 3.22100
C -0.25500 -3.42800 3.70100
C 0.71700 -3.48200 4.84800
O 1.93100 -3.25500 4.66900
O 0.03800 -3.55600 6.00300
C 0.94300 -3.58300 7.18300
H -1.85900 3.22000 2.49700
H -0.21800 2.45300 -3.47400
H 0.27600 -3.74700 -2.60500
H -1.55400 -0.94900 5.13200
H -1.58500 1.83100 4.66500
H -3.48400 -0.37700 3.96900
H -3.51100 1.02700 2.85800
H -3.85200 1.30100 4.54300
H 0.66900 1.09600 4.96600
H 1.13000 -0.63900 5.18900
H -0.84400 0.02600 7.12500
H 0.06200 1.47700 6.92100
H -1.34400 5.18600 1.93800
H -1.65100 5.96300 0.43200
H 0.00700 6.02000 1.08400
H -0.63500 6.74400 -1.40500
H 0.66500 6.97000 -2.70400
H 1.04800 6.46600 -1.03600
H 0.60800 0.50100 -4.89100
H -0.69200 -2.15600 -4.54700
H -1.26700 0.74000 -6.12900
H -2.20400 0.71400 -4.59600
H -1.96700 -0.72000 -5.45300
H 1.35600 -1.75900 -5.96700
H 1.45200 -3.15700 -4.90200
H 2.71400 -0.52200 -4.79800
H 3.48700 -2.12100 -4.52900
H 2.49500 -1.30300 -3.24000
H 0.86700 -6.33300 -0.08400
H 0.40400 -5.64200 -1.68000
H -0.89100 -5.99900 -0.46300
H -1.28300 -3.58100 4.02800
H 0.69800 -4.47800 7.75500
H 0.83300 -2.61900 7.68000
H 2.00000 -3.75400 6.97600
Mg 10.51782 0.95326 0.79458
C 9.89456 3.77570 2.92165
C 9.65613 2.93889 -1.84159
C 10.62123 -1.62436 -1.05274
C 10.21594 -1.06600 3.61897
N 9.87709 3.06727 0.68182
C 9.73596 4.05848 1.54895
C 9.48524 5.44746 0.90285
C 8.87094 4.95436 -0.49657
C 9.53250 3.58050 -0.58336
C 7.36463 4.75747 -0.45658
C 10.81252 6.25781 0.69383
C 10.61624 7.73733 0.35582
H 11.57867 8.70401 0.87710
N 10.66592 0.79197 -1.17789
C 10.28862 1.70284 -2.09942
C 10.58794 1.09964 -3.40737
C 11.01989 -0.30737 -3.18723
C 10.76015 -0.44388 -1.76808
C 10.52960 1.87305 -4.69262
C 11.56325 -1.36035 -4.10494
O 11.64743 -2.58796 -3.74618
C 11.90661 -0.92857 -5.46771
N 10.22237 -1.06870 1.17761
C 10.37895 -1.98623 0.20728
C 10.38685 -3.38528 0.77561
C 10.44564 -3.20368 2.36342
C 10.36812 -1.66331 2.44499
C 9.18825 -4.25956 0.40765
C 11.59872 -3.92642 3.11223
C 12.92570 -3.30655 2.73770
N 10.31182 1.27420 2.92122
C 10.17574 0.28867 3.92336
C 9.95043 0.99518 5.20105
C 9.94808 2.35283 4.84715
C 10.13701 2.48248 3.44466
C 9.73353 0.37865 6.46556
C 9.81813 3.70537 5.33955
O 9.72946 4.21941 6.45384
C 9.65134 4.68185 4.09654
C 10.58622 5.84417 4.29024
O 11.81798 5.67313 4.27971
O 9.88199 6.98948 4.23827
C 10.76731 8.17145 4.41427
H 9.18825 3.40435 -2.70953
H 10.75966 -2.54304 -1.62751
H 10.21009 -1.62063 4.55972
H 8.76789 6.06876 1.42550
H 9.19851 5.58780 -1.31682
H 6.97020 4.86840 0.54255
H 7.18920 3.75462 -0.82341
H 6.87766 5.42873 -1.16974
H 11.29848 5.91702 -0.22945
H 11.45449 6.16439 1.54810
H 9.59044 8.07236 0.55187
H 10.73884 7.86620 -0.72231
H 10.02187 2.83635 -4.55972
H 9.87792 1.31410 -5.37287
H 11.51024 1.98974 -5.15887
H 11.02450 -0.51096 -5.94725
H 12.36134 -1.79920 -5.94426
H 12.64264 -0.11942 -5.40333
H 11.26541 -3.92945 0.45137
H 9.53894 -3.59024 2.85159
H 9.47434 -5.20560 -0.08957
H 8.52632 -3.68276 -0.22455
H 8.53871 -4.52656 1.23952
H 11.64910 -4.97486 2.80828
H 11.49062 -3.90886 4.19158
H 13.17453 -3.80602 1.79659
H 13.67290 -3.51001 3.50212
H 12.81420 -2.23719 2.52391
H 10.32536 0.92817 7.18547
H 10.00637 -0.67442 6.44646
H 8.65460 0.52132 6.56960
H 8.60760 4.99680 4.06510
H 10.36587 8.74933 5.25247
H 10.79886 8.67063 3.42757
H 11.78257 7.99192 4.74814

