%nproc=24
%mem=175gb
#p cam-b3lyp/Def2SVP td=(nstates=5)

TDDFT excited states in gaussian

0 1
Mg 31.53920 2.83908 2.40358
C 31.56983 -0.61825 3.36534
C 30.35565 3.54228 5.52437
C 31.07393 5.82791 1.44553
C 31.61802 1.77336 -0.91361
N 31.06546 1.54403 4.13293
C 31.17525 0.25197 4.40287
C 30.92099 -0.11856 5.88868
C 30.01157 1.14007 6.29816
C 30.52858 2.15615 5.28181
C 28.52977 0.92043 6.04254
C 32.24597 -0.16709 6.72778
C 32.11140 -0.82041 8.10503
H 33.23227 -1.60475 8.61584
N 31.29312 4.50217 3.45816
C 30.82286 4.60409 4.71901
C 30.81541 6.04180 5.03063
C 31.16389 6.79176 3.79336
C 31.17029 5.71387 2.82475
C 30.57614 6.57333 6.41398
C 31.43271 8.24135 3.52388
O 31.48239 8.70646 2.33056
C 31.54326 9.11721 4.69953
N 31.15669 3.67922 0.54073
C 31.04834 5.01118 0.39214
C 31.04940 5.39911 -1.06727
C 31.42586 4.06572 -1.86598
C 31.49280 3.07334 -0.68441
C 29.73453 5.96133 -1.60712
C 32.63731 4.14408 -2.83496
C 33.91459 4.33743 -2.04975
N 31.77136 0.94945 1.38209
C 31.74879 0.72494 -0.01189
C 31.83135 -0.73543 -0.21907
C 31.87336 -1.26483 1.07957
C 31.80034 -0.21020 2.02926
C 31.81042 -1.39955 -1.47789
C 31.95217 -2.47672 1.86304
O 32.12120 -3.66794 1.60585
C 31.63167 -2.12046 3.37854
C 32.67902 -2.77102 4.24012
O 33.86759 -2.41187 4.16991
O 32.07485 -3.55211 5.15405
C 33.07197 -4.21056 6.03949
H 29.77031 3.84810 6.39197
H 31.02346 6.84853 1.05919
H 31.74662 1.36766 -1.91936
H 30.37073 -1.03958 6.03941
H 30.22719 1.47031 7.31098
H 28.34444 -0.00403 5.51607
H 28.20519 1.76528 5.44931
H 27.97237 0.97974 6.98175
H 32.51636 0.85305 7.02935
H 33.02967 -0.64751 6.17494
H 31.17333 -1.37965 8.20608
H 32.03555 -0.03159 8.85737
H 30.18451 5.79585 7.08148
H 29.76241 7.30286 6.33991
H 31.45560 7.06628 6.83377
H 30.62320 9.06472 5.27676
H 31.82490 10.09688 4.30863
H 32.34223 8.73650 5.34553
H 31.80166 6.15241 -1.26664
H 30.60064 3.73065 -2.51141
H 29.84106 6.96765 -2.05438
H 29.01371 5.97808 -0.80047
H 29.23648 5.33958 -2.34912
H 32.54186 5.01270 -3.49112
H 32.73968 3.27046 -3.47001
H 33.93656 5.41749 -1.87631
H 34.77493 4.01359 -2.63197
H 33.85287 3.84760 -1.07102
H 32.57242 -2.16653 -1.43797
H 31.98669 -0.70515 -2.29673
H 30.78690 -1.78382 -1.47867
H 30.63084 -2.49411 3.59830
H 32.88752 -5.28780 5.98275
H 32.95513 -3.73097 7.02949
H 34.11401 -4.15869 5.74642

