%nproc=24
%mem=175gb
#p cam-b3lyp/Def2SVP td=(nstates=5)

TDDFT excited states in gaussian

0 1
Mg 8.93219 0.81291 0.68455
C 11.02575 0.19614 3.53335
C 6.27705 0.82440 2.82574
C 7.01950 0.90622 -1.84534
C 11.53524 -0.36738 -1.30963
N 8.79639 0.53558 2.87473
C 9.66481 0.36930 3.86091
C 9.05035 0.46995 5.28283
C 7.53336 0.09113 4.91661
C 7.51445 0.54146 3.45732
C 7.25916 -1.40298 4.95898
C 9.15319 1.91843 5.87726
C 8.85553 2.02165 7.37475
H 9.60689 2.99001 8.16862
N 7.02459 1.33962 0.53551
C 6.09172 1.30277 1.51001
C 4.84299 1.77163 0.88951
C 5.07642 1.93154 -0.57153
C 6.40563 1.36642 -0.68952
C 3.61188 2.09761 1.68420
C 4.23658 2.48780 -1.68124
O 4.54429 2.30990 -2.91270
C 2.99385 3.16662 -1.28586
N 9.14817 0.14324 -1.27178
C 8.18552 0.35690 -2.18588
C 8.67446 0.03609 -3.57815
C 10.24848 -0.20803 -3.43512
C 10.38819 -0.06758 -1.90340
C 8.03001 -1.17834 -4.24616
C 11.17801 0.64285 -4.34322
C 11.10955 2.09655 -3.93400
N 10.98677 0.22243 0.99773
C 11.89134 -0.26493 0.02905
C 13.13046 -0.64042 0.74041
C 12.85037 -0.36480 2.08728
C 11.52283 0.12739 2.20937
C 14.29349 -1.20452 0.14436
C 13.37218 -0.38831 3.43482
O 14.46955 -0.62693 3.93738
C 12.17048 -0.14530 4.44638
C 12.60544 0.89365 5.44334
O 12.83507 2.06078 5.08047
O 12.46880 0.39630 6.68606
C 12.87741 1.39396 7.71053
H 5.35650 0.62175 3.37384
H 6.44010 1.02037 -2.76444
H 12.42715 -0.65119 -1.87233
H 9.44748 -0.23791 6.00046
H 6.82805 0.67290 5.50435
H 8.16247 -1.97415 5.11369
H 6.81576 -1.64792 4.00271
H 6.49626 -1.62506 5.71065
H 8.33126 2.52774 5.47988
H 10.11371 2.34830 5.66929
H 8.85694 1.03999 7.86392
H 7.83189 2.38254 7.50101
H 3.68677 1.72454 2.71309
H 2.78764 1.52401 1.24662
H 3.35918 3.15960 1.65276
H 2.36740 2.47601 -0.72632
H 2.57665 3.57347 -2.20906
H 3.24490 3.98683 -0.60407
H 8.50771 0.87038 -4.24840
H 10.52428 -1.24375 -3.68217
H 7.55488 -0.94160 -5.21688
H 7.30641 -1.60054 -3.56156
H 8.69973 -2.01852 -4.42154
H 10.83941 0.59633 -5.38117
H 12.21295 0.31781 -4.32722
H 10.21458 2.45638 -4.45037
H 11.99798 2.63013 -4.26568
H 10.93037 2.19420 -2.85696
H 15.14399 -0.69840 0.58138
H 14.27816 -1.09559 -0.93808
H 14.18476 -2.24752 0.45353
H 11.94476 -1.10029 4.92241
H 13.64478 0.91970 8.33012
H 11.94302 1.70376 8.21520
H 13.39988 2.27931 7.36755

