%nproc=24
%mem=175gb
#p cam-b3lyp/Def2SVP td=(nstates=5)

TDDFT excited states in gaussian

0 1
Mg 0.00000 0.00000 0.00000
C -0.21700 -2.21800 2.80100
C -1.25500 2.44200 2.02600
C -0.24500 1.85000 -2.56400
C 0.14600 -2.82400 -2.03700
N -0.61700 -0.00900 2.12600
C -0.59400 -0.90800 3.10500
C -0.93600 -0.30900 4.50200
C -1.77300 0.96400 4.03200
C -1.15500 1.16800 2.66000
C -3.26300 0.68500 3.86300
C 0.34500 0.11000 5.29900
C 0.12400 0.39700 6.78700
H 1.16800 0.03300 7.73300
N -0.18500 1.96100 -0.15200
C -0.70300 2.80000 0.77700
C -0.62000 4.15600 0.19300
C -0.18700 4.01500 -1.22500
C -0.21400 2.58300 -1.38000
C -0.88700 5.40600 0.97400
C 0.18100 5.01300 -2.27700
O 0.30300 4.69000 -3.50800
C 0.31000 6.41400 -1.83700
N -0.26500 -0.41300 -2.02900
C -0.27900 0.56900 -2.93700
C -0.19600 0.02400 -4.33200
C 0.12400 -1.53300 -4.18000
C 0.08600 -1.63200 -2.63500
C -1.45100 0.20500 -5.19700
C 1.37300 -2.07000 -4.92300
C 2.62600 -1.49000 -4.30600
N 0.15000 -2.14400 0.30300
C 0.17300 -3.13600 -0.68800
C 0.17300 -4.43800 0.00400
C 0.13300 -4.11100 1.35800
C 0.08300 -2.69500 1.50200
C 0.14900 -5.71500 -0.62300
C 0.09600 -4.62900 2.71600
O 0.20800 -5.74700 3.22100
C -0.25500 -3.42800 3.70100
C 0.71700 -3.48200 4.84800
O 1.93100 -3.25500 4.66900
O 0.03800 -3.55600 6.00300
C 0.94300 -3.58300 7.18300
H -1.85900 3.22000 2.49700
H -0.21800 2.45300 -3.47400
H 0.27600 -3.74700 -2.60500
H -1.55400 -0.94900 5.13200
H -1.58500 1.83100 4.66500
H -3.48400 -0.37700 3.96900
H -3.51100 1.02700 2.85800
H -3.85200 1.30100 4.54300
H 0.66900 1.09600 4.96600
H 1.13000 -0.63900 5.18900
H -0.84400 0.02600 7.12500
H 0.06200 1.47700 6.92100
H -1.34400 5.18600 1.93800
H -1.65100 5.96300 0.43200
H 0.00700 6.02000 1.08400
H -0.63500 6.74400 -1.40500
H 0.66500 6.97000 -2.70400
H 1.04800 6.46600 -1.03600
H 0.60800 0.50100 -4.89100
H -0.69200 -2.15600 -4.54700
H -1.26700 0.74000 -6.12900
H -2.20400 0.71400 -4.59600
H -1.96700 -0.72000 -5.45300
H 1.35600 -1.75900 -5.96700
H 1.45200 -3.15700 -4.90200
H 2.71400 -0.52200 -4.79800
H 3.48700 -2.12100 -4.52900
H 2.49500 -1.30300 -3.24000
H 0.86700 -6.33300 -0.08400
H 0.40400 -5.64200 -1.68000
H -0.89100 -5.99900 -0.46300
H -1.28300 -3.58100 4.02800
H 0.69800 -4.47800 7.75500
H 0.83300 -2.61900 7.68000
H 2.00000 -3.75400 6.97600
Mg 13.14282 1.18773 1.00643
C 12.29796 -1.10601 3.63398
C 11.34970 3.54828 2.69378
C 13.48885 3.10032 -1.50150
C 13.87115 -1.57812 -0.98487
N 12.01594 1.11044 2.90812
C 11.81644 0.20185 3.85099
C 11.12820 0.74475 5.13206
C 10.38878 2.01617 4.48738
C 11.32396 2.27017 3.30687
C 9.00701 1.69609 3.94184
C 12.16330 1.17745 6.22904
C 11.56505 1.42561 7.61550
H 12.35644 1.06738 8.78932
N 12.94205 3.15634 0.85524
C 12.19201 3.96028 1.63779
C 12.36664 5.31944 1.10268
C 13.14983 5.22957 -0.15956
C 13.20738 3.79189 -0.33228
C 11.88273 6.54530 1.82138
C 13.73736 6.26635 -1.06846
O 14.17383 5.96863 -2.23623
C 13.70127 7.65545 -0.58828
N 13.40802 0.81862 -1.02230
C 13.58513 1.82912 -1.89147
C 14.02936 1.31658 -3.24068
C 14.34850 -0.23582 -3.02673
C 13.92996 -0.37862 -1.54693
C 13.02080 1.47650 -4.37805
C 15.76061 -0.72835 -3.44631
C 16.80813 -0.12737 -2.53696
N 13.28074 -0.94815 1.30143
C 13.57451 -1.92666 0.32658
C 13.44042 -3.24526 0.97907
C 13.05245 -2.94076 2.29256
C 12.93223 -1.53269 2.44218
C 13.62134 -4.50809 0.34769
C 12.70696 -3.49079 3.58360
O 12.71666 -4.61703 4.07881
C 12.08031 -2.33337 4.47471
C 12.73661 -2.38153 5.82729
O 13.94848 -2.13120 5.95105
O 11.78753 -2.50040 6.77359
C 12.38860 -2.54124 8.13332
H 10.62786 4.29625 3.02298
H 13.72506 3.71927 -2.37016
H 14.17640 -2.48502 -1.51121
H 10.39980 0.07590 5.57461
H 10.39489 2.86366 5.16788
H 8.79747 0.63715 3.97160
H 9.00384 2.05384 2.92055
H 8.24862 2.28214 4.46883
H 12.52844 2.18656 5.99861
H 12.96138 0.46447 6.30218
H 10.54681 1.02737 7.70237
H 11.44423 2.50280 7.75358
H 11.19907 6.28815 2.63985
H 11.26151 7.10601 1.11460
H 12.70025 7.18598 2.15882
H 12.67063 7.94490 -0.39737
H 14.24659 8.23679 -1.33430
H 14.22581 7.70729 0.37234
H 14.93153 1.81905 -3.56735
H 13.66882 -0.87550 -3.60868
H 13.41906 2.04835 -5.23738
H 12.13334 1.95273 -3.98287
H 12.62435 0.54485 -4.77813
H 15.99540 -0.38785 -4.45779
H 15.86123 -1.80854 -3.43866
H 16.98098 0.85901 -2.97772
H 17.71495 -0.72871 -2.54731
H 16.41054 0.02784 -1.52727
H 14.19536 -5.11882 1.03179
H 14.12404 -4.40456 -0.61166
H 12.57976 -4.82017 0.23374
H 11.00589 -2.51119 4.53445
H 12.03217 -3.45817 8.61279
H 12.11198 -1.58264 8.61115
H 13.46241 -2.66982 8.20297

