%nproc=24
%mem=75gb
#p cam-b3lyp/Def2SVP pop=full

Ground state in gaussian

0 1
