%nproc=24
%mem=175gb
#p cam-b3lyp/Def2SVP td=(nstates=5)

TDDFT excited states in gaussian

0 1
Mg 24.10500 -6.98700 45.76300
C  26.35700 -4.60000 44.67200
C  21.60100 -5.39700 43.81500
C  21.97300 -9.61100 46.32100
C  26.64500 -8.78600 47.26000
N  24.01000 -5.13100 44.52100
C  25.10000 -4.37600 44.14200
C  24.78600 -3.32200 43.01500
C  23.18500 -3.32200 43.04600
C  22.83700 -4.67700 43.88000
C  22.42500 -2.06700 43.62200
C  25.32600 -3.65200 41.66800
C  26.32400 -2.73600 40.98600
H  26.30600 -2.74400 39.44900
N  22.01900 -7.39700 45.22300
C  21.19700 -6.55000 44.45600
C  19.87600 -7.09000 44.39600
C  20.00000 -8.43900 45.00800
C  21.38600 -8.56500 45.55600
C  18.73000 -6.47100 43.58900
C  18.81400 -9.41900 45.03000
O  17.69600 -9.24400 44.55400
C  19.11500 -10.83500 45.37300
N  24.32600 -9.09200 46.54400
C  23.25000 -9.84400 46.81300
C  23.77300 -11.22400 47.20900
C  25.30200 -11.00000 47.62300
C  25.47100 -9.49100 47.13900
C  22.98600 -11.74600 48.46300
C  26.42600 -11.94400 47.02800
C  27.21200 -12.87800 47.93600
N  26.13500 -6.72100 46.02000
C  27.06100 -7.52500 46.69200
C  28.37300 -6.96800 46.56500
C  28.18100 -5.79800 45.76700
C  26.75600 -5.70300 45.52000
C  29.66500 -7.49100 47.10900
C  28.78000 -4.66700 45.18800
O  29.95100 -4.34500 45.21400
C  27.66100 -3.89000 44.39200
C  27.78800 -2.45400 44.68600
O  28.26300 -1.64500 43.89700
O  27.32400 -2.18500 45.96500
C  27.46400 -0.76100 46.34400
H  20.74200 -4.97500 43.29000
H  21.20500 -10.36000 46.52700
H  27.44000 -9.39000 47.70200
H  25.15500 -2.34400 43.32200
H  22.85800 -3.53200 42.02700
H  23.15600 -1.26300 43.70700
H  21.93600 -2.23300 44.58200
H  21.62700 -1.83100 42.91900
H  24.47200 -3.65600 40.98900
H  25.82900 -4.61800 41.69600
H  27.32300 -3.08700 41.24300
H  26.19000 -1.68500 41.24100
H  18.88600 -5.59200 42.96400
H  17.97200 -6.31900 44.35700
H  18.31100 -7.32700 43.06100
H  19.07300 -11.15900 46.41200
H  20.04000 -11.18300 44.91300
H  18.31700 -11.42600 44.92200
H  23.69500 -11.95400 46.40300
H  25.39200 -10.93900 48.70700
H  22.65700 -12.75800 48.22700
H  22.13300 -11.13900 48.76900
H  23.59300 -11.78000 49.36800
H  27.10900 -11.25400 46.53300
H  25.90100 -12.60500 46.33700
H  28.14800 -13.06200 47.40800
H  26.68200 -13.82800 48.00800
H  27.49600 -12.55500 48.93700
H  30.42900 -6.77800 46.79800
H  29.79900 -8.49600 46.71000
H  29.72100 -7.55200 48.19600
H  27.94500 -4.03400 43.34900
H  28.43100 -0.59300 46.81800
H  26.59100 -0.52900 46.95400
H  27.37100 -0.10100 45.48200
Mg 15.77600 52.08200 25.40200
C  17.41000 50.69800 28.22000
C  13.20100 52.90800 27.42100
C  14.25400 53.22200 22.73700
C  18.25300 50.46100 23.37600
N  15.27500 51.74600 27.60200
C  16.22500 51.39100 28.54500
C  15.65700 51.73300 29.88000
C  14.15600 51.89200 29.63600
C  14.16000 52.23400 28.12500
C  13.39700 50.53700 29.89600
C  16.28100 53.03000 30.62900
C  16.58500 52.99000 32.15800
H  15.44800 52.47100 33.08500
N  13.93500 52.94500 25.15100
C  13.06900 53.20000 26.08700
C  11.87700 53.79900 25.46200
C  12.22000 54.11300 24.11200
C  13.51400 53.39600 23.93000
C  10.48000 54.11300 26.11100
C  11.50000 54.93700 23.04500
O  11.87100 55.02600 21.85900
C  10.19300 55.49000 23.36500
N  16.14700 51.69600 23.28800
C  15.39400 52.41700 22.36500
C  16.06600 52.28500 20.94400
C  17.38400 51.52800 21.24300
C  17.29200 51.23400 22.74200
C  15.13200 51.68100 19.89500
C  18.69000 52.21600 20.77200
C  19.80100 51.32100 20.17500
N  17.47400 50.82500 25.67600
C  18.34200 50.20900 24.78000
C  19.41200 49.59700 25.52600
C  19.05500 49.71600 26.87000
C  17.86300 50.48800 26.94600
C  20.58200 49.01900 25.00900
C  19.46500 49.44600 28.25600
O  20.44600 48.90400 28.74000
C  18.40300 50.10900 29.19300
C  17.85700 49.01900 30.09800
O  16.99100 48.18400 29.96600
O  18.53900 49.25300 31.25700
C  18.03900 48.60700 32.49400
H  12.40000 53.26000 28.07500
H  13.81800 53.79200 21.91400
H  19.12700 50.15700 22.79700
H  15.77300 50.97700 30.65700
H  13.74100 52.77300 30.12500
H  12.38500 50.66400 30.27900
H  13.84800 49.93600 30.68600
H  13.32800 50.06400 28.91700
H  15.69100 53.91000 30.37500
H  17.23100 53.29600 30.16400
H  16.68900 54.04900 32.39700
H  17.49400 52.38900 32.18400
H  10.24800 55.17100 26.23100
H  10.47100 53.63100 27.08900
H  9.61500 53.80800 25.52200
H  10.23700 56.09500 24.27100
H  9.45700 54.69600 23.49200
H  9.96700 56.22700 22.59500
H  16.38500 53.29100 20.67100
H  17.33800 50.51100 20.85400
H  15.24100 50.59600 19.90400
H  15.36700 51.95500 18.86700
H  14.10200 51.79300 20.23200
H  19.14000 52.87200 21.51700
H  18.48100 52.96500 20.00700
H  20.48500 51.15800 21.00800
H  20.30400 51.95600 19.44500
H  19.37300 50.39500 19.79200
H  21.13200 48.28300 25.59500
H  21.23200 49.84300 24.71300
H  20.26200 48.46700 24.12600
H  18.86400 50.90900 29.77200
H  18.09100 49.38900 33.25100
H  18.61600 47.75900 32.86200
H  16.99700 48.31500 32.36600


