%nproc=24
%mem=175gb
#p cam-b3lyp/Def2SVP td=(nstates=5)

TDDFT excited states in gaussian

0 1
Mg 46.48800 44.18100 43.47500
C  43.15300 43.46100 43.30400
C  47.10800 40.75600 42.73500
C  49.77100 44.92500 43.24200
C  45.73500 47.57600 43.26500
N  45.18800 42.33600 42.67700
C  43.85400 42.27500 42.94800
C  43.32200 40.91600 42.58600
C  44.62300 40.02800 42.36600
C  45.76600 41.06300 42.61200
C  44.58600 38.65100 42.92100
C  42.20900 40.77400 41.44300
C  42.22600 41.75800 40.31100
H  42.13200 41.19200 38.90100
N  48.19100 42.96300 43.28600
C  48.25100 41.62900 43.02600
C  49.60100 41.16100 42.91600
C  50.41700 42.37800 43.18500
C  49.45800 43.50200 43.25700
C  50.07700 39.81200 42.65600
C  51.92500 42.49800 43.35200
O  52.62900 41.58000 43.12100
C  52.68900 43.74400 43.70500
N  47.56100 45.95400 43.15400
C  48.89600 45.98900 43.28400
C  49.46200 47.47200 42.97200
C  48.15100 48.31100 43.36800
C  47.10700 47.23300 43.19900
C  50.71200 47.88700 43.75300
C  48.00000 49.60500 42.54800
C  47.68500 50.93800 43.23700
N  44.79500 45.31200 43.20500
C  44.59800 46.68700 43.17600
C  43.22600 47.01600 43.20700
C  42.57500 45.79800 43.31300
C  43.57500 44.76200 43.30900
C  42.60800 48.38000 43.21500
C  41.37100 45.09400 43.47000
O  40.23700 45.56500 43.52900
C  41.64700 43.57300 43.29900
C  40.96100 42.96000 44.51100
O  40.13800 42.02200 44.45100
O  41.52200 43.52500 45.63200
C  41.27100 42.99100 46.99300
H  47.22800 39.72900 42.38400
H  50.80000 45.16300 42.96500
H  45.50900 48.64400 43.27100
H  42.74600 40.53700 43.43100
H  44.70600 39.88500 41.28900
H  45.47200 38.39300 43.50100
H  44.34100 37.90700 42.16300
H  43.78400 38.58200 43.65600
H  41.18300 40.86000 41.80100
H  42.35800 39.83500 40.90900
H  42.98200 42.53800 40.39500
H  41.27000 42.28200 40.33700
H  49.35900 39.10300 43.06700
H  51.06100 39.59900 43.07200
H  50.12200 39.70100 41.57200
H  51.89900 44.16700 44.32600
H  52.89000 44.37800 42.84200
H  53.62800 43.61700 44.24400
H  49.58000 47.51900 41.88900
H  48.02200 48.62000 44.40500
H  50.38700 48.59700 44.51400
H  51.51000 48.17200 43.06800
H  51.16800 47.06300 44.30100
H  47.21200 49.41800 41.81800
H  48.88600 49.70600 41.92100
H  48.29300 51.80900 42.99200
H  47.59300 50.84600 44.32000
H  46.63600 51.07800 42.97800
H  41.68900 48.46100 43.79600
H  42.39500 48.66700 42.18500
H  43.24900 49.14100 43.66200
H  41.15500 43.34600 42.35400
H  42.16000 43.01500 47.62300
H  40.93100 41.96000 46.89400
H  40.51300 43.43800 47.63500
Mg 35.28300 49.28100 25.05100
C  35.19500 47.66600 28.21300
C  33.70700 52.00200 26.67100
C  34.96700 50.74000 22.15000
C  36.56200 46.36300 23.65600
N  34.51200 49.78400 27.24100
C  34.71400 48.96400 28.32400
C  34.31200 49.60400 29.64200
C  33.71300 50.96400 29.08000
C  34.02200 50.95100 27.57500
C  32.25500 51.13300 29.49700
C  35.54400 49.80300 30.55200
C  35.36900 49.62200 32.10800
H  33.94300 49.72800 32.69800
N  34.52100 51.15700 24.48200
C  33.85000 52.07800 25.28700
C  33.47900 53.23000 24.45000
C  33.93900 52.90600 23.13200
C  34.54200 51.56500 23.25500
C  32.73100 54.35200 24.94000
C  33.82500 53.73400 21.85600
O  34.18700 53.27500 20.76100
C  33.44700 55.16200 21.91300
N  35.61000 48.60100 23.15100
C  35.50000 49.43800 22.11600
C  35.83700 48.71600 20.77100
C  36.52000 47.40900 21.28500
C  36.22400 47.41000 22.75200
C  34.60600 48.52300 19.81400
C  38.05900 47.61300 21.01100
C  38.99100 48.19700 22.12800
N  35.88400 47.43300 25.74900
C  36.37900 46.32800 25.03300
C  36.56500 45.20400 25.98400
C  36.06300 45.68400 27.18800
C  35.69100 47.00600 27.06500
C  36.87500 43.87200 25.49400
C  35.71300 45.23100 28.53200
O  35.83100 44.10500 29.00200
C  35.09700 46.50900 29.27300
C  33.71900 46.24000 29.75100
O  32.68000 46.50000 29.15100
O  33.78400 45.64900 31.02700
C  32.59200 45.22000 31.72300
H  33.45300 52.96300 27.12400
H  34.90900 51.17800 21.15100
H  37.00400 45.52600 23.11200
H  33.56100 49.02400 30.17900
H  34.21800 51.75900 29.62800
H  32.03300 52.05800 30.02800
H  31.83200 50.33100 30.10200
H  31.68100 51.22500 28.57400
H  35.98600 50.78700 30.39600
H  36.22100 49.06000 30.12900
H  35.89600 50.41200 32.64200
H  35.97000 48.74800 32.35900
H  33.30100 55.24000 24.66600
H  32.41200 54.18900 25.96900
H  31.80500 54.22200 24.37900
H  32.39300 55.32500 22.14000
H  33.61200 55.61800 20.93700
H  33.97000 55.60700 22.75900
H  36.50600 49.47100 20.35800
H  36.19100 46.53200 20.72700
H  34.58000 49.32300 19.07400
H  33.72600 48.44000 20.45100
H  34.76400 47.56600 19.31700
H  38.19100 48.07200 20.03100
H  38.44400 46.59300 21.03000
H  39.60900 48.91300 21.58700
H  39.65000 47.44800 22.56900
H  38.49600 48.74500 22.92900
H  36.19400 43.63700 24.67700
H  36.66800 43.18600 26.31600
H  37.94500 43.75700 25.32300
H  35.75600 46.63900 30.13200
H  32.37400 44.16000 31.59500
H  31.77700 45.93200 31.59200
H  32.87100 45.44400 32.75300


