%nproc=24
%mem=175gb
#p cam-b3lyp/Def2SVP td=(nstates=5) density=(transition=1)

TDDFT excited states in gaussian

0 1
Mg 24.45900 -7.80400 45.73000
C  26.58600 -5.04500 44.57700
C  21.88700 -6.07400 44.19000
C  22.84100 -10.55200 45.75100
C  27.52200 -9.37000 46.76800
N  24.34300 -5.76600 44.35600
C  25.30500 -4.83000 44.04500
C  24.68800 -3.74900 43.08400
C  23.16700 -3.94300 43.21100
C  23.11900 -5.33100 43.95600
C  22.33200 -2.87300 44.03000
C  25.23700 -3.82200 41.61800
C  25.48800 -2.49900 40.92700
H  24.41700 -2.03400 39.89100
N  22.60400 -8.23500 45.19100
C  21.64700 -7.40100 44.68000
C  20.38100 -8.15500 44.46900
C  20.67900 -9.47200 44.90600
C  22.09500 -9.47000 45.26500
C  19.08200 -7.63000 43.83600
C  19.81800 -10.73300 44.78900
O  18.67600 -10.59500 44.35900
C  20.22700 -12.02800 45.16700
N  25.20700 -9.77600 45.95500
C  24.19400 -10.69000 46.16700
C  24.84300 -12.02000 46.71400
C  26.38100 -11.70100 46.72900
C  26.35300 -10.16200 46.56900
C  24.30300 -12.52000 48.08200
C  27.32200 -12.42400 45.68300
C  27.76100 -13.86800 45.98200
N  26.63200 -7.37200 45.76700
C  27.69000 -8.05400 46.33400
C  28.89800 -7.26500 46.33900
C  28.50100 -6.05100 45.66300
C  27.12300 -6.13300 45.25800
C  30.21600 -7.74700 46.86200
C  28.99300 -4.84100 45.17500
O  30.13700 -4.41700 45.08200
C  27.84800 -4.18900 44.34700
C  27.67100 -2.81900 44.95900
O  27.62100 -1.78000 44.29600
O  27.39300 -2.80300 46.38500
C  26.88100 -1.51100 46.83900
H  21.04400 -5.51700 43.77700
H  22.37000 -11.50900 45.98500
H  28.34500 -9.94300 47.20000
H  24.83100 -2.76600 43.53500
H  22.69900 -4.12200 42.24300
H  21.79800 -2.30300 43.27000
H  22.98800 -2.17400 44.54800
H  21.67600 -3.27700 44.80100
H  24.55300 -4.27200 40.89800
H  26.19500 -4.34200 41.59800
H  26.49400 -2.54600 40.51000
H  25.50300 -1.72600 41.69600
H  18.22200 -8.02700 44.37600
H  19.15100 -7.95200 42.79700
H  19.01200 -6.54700 43.92800
H  20.35400 -12.03800 46.25000
H  21.09800 -12.40800 44.63300
H  19.40000 -12.62300 44.77800
H  24.71500 -12.87500 46.05100
H  26.80800 -11.85300 47.72000
H  25.17900 -12.58000 48.72800
H  23.87600 -13.51200 47.93800
H  23.57100 -11.76000 48.35800
H  28.20300 -11.78200 45.65400
H  26.82800 -12.52100 44.71600
H  27.32600 -14.00800 46.97200
H  28.83900 -13.92900 46.13800
H  27.42200 -14.64300 45.29500
H  30.43000 -8.65700 46.30300
H  30.17700 -8.08000 47.89900
H  31.04400 -7.08900 46.59800
H  28.22500 -4.06500 43.33200
H  26.34600 -1.90700 47.70300
H  26.35400 -0.97600 46.04900
H  27.73900 -0.96400 47.23000
Mg 44.80500 2.87200 46.67800
C  42.56400 5.57100 46.81800
C  42.13800 0.79200 46.35700
C  47.01300 0.52400 46.12300
C  47.34200 5.37800 46.17800
N  42.64100 3.17100 46.66900
C  41.94200 4.34400 46.71700
C  40.48300 4.04900 46.33800
C  40.34000 2.59000 46.75700
C  41.78900 2.14300 46.48400
C  39.96100 2.42600 48.24700
C  40.23600 4.25700 44.79800
C  39.26900 5.45400 44.33400
H  39.83900 6.57400 43.44700
N  44.60700 0.93700 46.23600
C  43.41900 0.24600 46.16900
C  43.72000 -1.14400 46.02500
C  45.14200 -1.32500 46.06900
C  45.67600 0.06600 46.14000
C  42.62100 -2.25300 45.89000
C  45.87200 -2.71700 46.06400
O  45.23700 -3.72500 46.11700
C  47.31400 -2.74100 46.27700
N  46.83800 2.95400 45.90000
C  47.54500 1.82700 46.15300
C  49.01900 2.09000 46.41200
C  49.17500 3.56200 46.06200
C  47.67600 4.02200 46.03300
C  49.44600 1.78300 47.89500
C  49.96600 3.97900 44.73400
C  51.33300 4.60700 44.78400
N  45.00300 4.99200 46.72600
C  46.07700 5.86500 46.51000
C  45.65700 7.24900 46.55200
C  44.29400 7.16900 46.69900
C  43.89900 5.79300 46.77900
C  46.53700 8.41600 46.37700
C  43.08200 7.96600 46.81100
O  42.95000 9.19400 46.88400
C  41.94500 6.98400 47.00000
C  41.32800 7.26400 48.36600
O  42.00600 7.20100 49.38900
O  40.00100 7.70700 48.25300
C  39.36700 8.02300 49.50500
H  41.26200 0.14300 46.41400
H  47.71200 -0.30200 46.26300
H  48.13300 6.13000 46.13700
H  39.87300 4.80700 46.83000
H  39.59400 2.12600 46.11300
H  39.12500 1.73800 48.12600
H  39.66800 3.42600 48.56800
H  40.73100 2.03300 48.91100
H  39.76200 3.35000 44.42300
H  41.21000 4.30800 44.31200
H  38.98200 5.96200 45.25500
H  38.33700 5.13200 43.87100
H  42.71600 -2.97100 45.07600
H  41.68000 -1.71700 45.76200
H  42.51800 -2.85500 46.79300
H  47.88700 -2.17400 45.54300
H  47.64600 -3.77900 46.25800
H  47.54400 -2.49600 47.31300
H  49.67000 1.44400 45.82200
H  49.62700 4.10200 46.89400
H  49.91800 0.80800 48.01500
H  48.60400 1.96800 48.56200
H  50.20200 2.52100 48.16700
H  49.41200 4.48800 43.94600
H  50.09500 2.95900 44.37100
H  52.11800 3.97300 44.37300
H  51.60000 4.81700 45.82000
H  51.22600 5.52900 44.21300
H  47.39900 8.09600 45.79100
H  46.88900 8.66700 47.37800
H  45.99500 9.26600 45.96500
H  41.25100 7.27600 46.21300
H  39.04600 7.15600 50.08300
H  38.48400 8.64500 49.36100
H  39.98200 8.61300 50.18400


