%nproc=24
%mem=175gb
#p cam-b3lyp/Def2SVP td=(nstates=5)

TDDFT excited states in gaussian

0 1
Mg 16.95800 -2.04300 28.05800
C  15.67900 0.03700 30.54100
C  18.78700 -3.72100 30.44000
C  18.31300 -3.78900 25.50500
C  15.32700 0.02400 25.64200
N  17.25900 -1.76300 30.19400
C  16.62800 -0.88400 31.01900
C  16.98400 -1.14100 32.48900
C  18.10000 -2.26900 32.35300
C  18.02400 -2.61400 30.86200
C  19.48200 -1.75800 32.74200
C  15.83300 -1.72700 33.38200
C  15.87500 -1.41800 34.85600
H  17.10800 -0.90300 35.45200
N  18.26300 -3.57700 28.00200
C  18.92400 -4.12800 29.11800
C  19.62000 -5.29300 28.63800
C  19.47300 -5.38800 27.23100
C  18.65200 -4.21500 26.84200
C  20.55500 -6.11300 29.50100
C  19.94500 -6.39800 26.27100
O  19.91000 -6.24200 25.06900
C  20.68300 -7.69100 26.77500
N  16.72600 -2.04100 25.82800
C  17.40600 -2.83200 25.05300
C  17.12300 -2.53800 23.54900
C  16.12900 -1.39100 23.56700
C  16.05500 -1.03300 25.09500
C  18.49500 -2.31000 22.75600
C  14.77700 -1.75000 22.91500
C  14.57500 -1.34500 21.40700
N  15.59300 -0.54700 28.03400
C  15.01200 0.20800 26.98500
C  14.13500 1.19500 27.48900
C  14.45500 1.19400 28.91300
C  15.31700 0.08300 29.13900
C  13.41400 2.25000 26.67000
C  14.16900 1.92500 30.09200
O  13.43900 2.88400 30.30900
C  14.95100 1.07800 31.29700
C  15.78000 2.10000 32.01800
O  16.65500 2.79200 31.48700
O  15.36200 2.29400 33.36800
C  16.13600 3.30900 34.14900
H  19.34000 -4.20600 31.24800
H  18.93000 -4.26900 24.74300
H  14.76600 0.65500 24.95000
H  17.39400 -0.20500 32.86900
H  17.90900 -3.13400 32.98800
H  19.41600 -0.81500 33.28400
H  20.16500 -1.70100 31.89400
H  19.97000 -2.35300 33.51400
H  15.82100 -2.80600 33.23200
H  14.89600 -1.40800 32.92500
H  15.72700 -2.36200 35.38000
H  15.08500 -0.70500 35.09200
H  21.59900 -6.03400 29.19800
H  20.20800 -7.14700 29.48400
H  20.60300 -5.83600 30.55400
H  21.71600 -7.39100 26.95300
H  20.76400 -8.41600 25.96500
H  20.25400 -8.04400 27.71200
H  16.67800 -3.47000 23.20000
H  16.55100 -0.48300 23.13900
H  18.49400 -1.34000 22.25900
H  18.63800 -3.00100 21.92500
H  19.26300 -2.34000 23.53000
H  14.01500 -1.24300 23.50800
H  14.64200 -2.82300 23.05200
H  14.22000 -0.31400 21.38800
H  13.95900 -1.97800 20.76800
H  15.61200 -1.30800 21.07500
H  12.51000 1.73500 26.34600
H  13.99600 2.54300 25.79700
H  13.31000 3.23400 27.12900
H  14.20300 0.59900 31.93000
H  16.03100 4.30700 33.72500
H  17.20500 3.14900 34.29200
H  15.57400 3.26700 35.08200
Mg 29.51000 58.90800 41.21400
C  26.38900 57.48600 40.17300
C  31.07800 56.05600 39.82600
C  32.44700 60.51200 41.46200
C  27.84100 61.85400 41.88400
N  28.82700 56.95900 40.12100
C  27.51800 56.70000 39.82500
C  27.43600 55.53200 38.85500
C  28.91100 54.97600 39.03000
C  29.71500 56.02800 39.69400
C  29.08100 53.62400 39.80100
C  26.96300 56.03100 37.45200
C  25.85600 55.22200 36.65900
H  26.19700 54.60200 35.29200
N  31.43900 58.34900 40.91600
C  31.91100 57.13400 40.35300
C  33.36200 57.11100 40.33800
C  33.74700 58.43000 40.81400
C  32.51100 59.13800 41.09000
C  34.11400 55.98100 39.76900
C  35.21500 58.86100 40.97700
O  36.08800 58.03800 40.57400
C  35.69500 60.19600 41.58500
N  30.14600 61.00100 41.36300
C  31.38600 61.37000 41.62100
C  31.40400 62.84700 41.84900
C  29.90900 63.22000 42.03600
C  29.21400 61.95000 41.65200
C  32.31600 63.46200 42.99500
C  29.40100 64.48800 41.17400
C  28.93400 65.75600 41.93000
N  27.56300 59.51200 41.26600
C  27.03200 60.71300 41.55100
C  25.61900 60.69600 41.44600
C  25.33000 59.42300 40.94900
C  26.56000 58.73200 40.80800
C  24.61100 61.72700 41.76100
C  24.21900 58.63400 40.51400
O  23.05400 58.95300 40.43300
C  24.92200 57.26000 39.91000
C  24.42400 56.08500 40.63500
O  24.27500 56.00600 41.86100
O  24.19400 55.10700 39.69100
C  23.68300 53.83100 40.18900
H  31.62000 55.20100 39.41900
H  33.35900 61.11200 41.46000
H  27.25300 62.67600 42.29800
H  26.78700 54.79200 39.32400
H  29.19500 54.98000 37.97700
H  29.75800 53.81000 40.63600
H  29.53300 52.82700 39.21100
H  28.17800 53.23200 40.27000
H  27.91200 55.97700 36.91900
H  26.65200 57.07400 37.39700
H  25.02500 55.92000 36.55900
H  25.42300 54.48900 37.33900
H  33.71100 55.81900 38.76900
H  33.89700 55.07100 40.32800
H  35.20300 56.02600 39.79800
H  35.47200 60.98900 40.87100
H  36.68900 59.96900 41.96900
H  35.05300 60.30300 42.46000
H  31.80800 63.29500 40.94200
H  29.82800 63.26800 43.12200
H  32.55800 64.46300 42.63700
H  33.18900 62.82200 43.12200
H  31.69200 63.52000 43.88700
H  28.59500 64.07600 40.56700
H  30.17400 64.71200 40.43900
H  27.96900 66.12300 41.58300
H  29.69100 66.53100 41.80700
H  28.89100 65.63000 43.01200
H  23.61700 61.29700 41.88000
H  24.71500 62.31200 40.84700
H  25.04500 62.40800 42.49300
H  24.83500 57.21500 38.82500
H  22.80800 53.96700 40.82500
H  24.47100 53.30400 40.72900
H  23.37200 53.22500 39.33800


