%nproc=24
%mem=175gb
#p cam-b3lyp/Def2SVP td=(nstates=5)

TDDFT excited states in gaussian

0 1
Mg 25.94600 0.51000 29.41700
C  27.75500 0.04800 32.42200
C  23.08400 0.98300 31.28700
C  24.18800 0.65700 26.52400
C  28.83500 -0.18800 27.55800
N  25.56000 0.39300 31.59400
C  26.46800 0.41400 32.65000
C  25.73500 0.61600 34.03900
C  24.24300 0.62700 33.61200
C  24.25900 0.61600 32.06700
C  23.30400 -0.50900 34.16600
C  26.25400 1.80200 34.95100
C  26.76400 1.39400 36.30000
H  26.45300 2.38700 37.48900
N  23.95800 0.76900 29.03000
C  22.92100 1.01800 29.90600
C  21.67800 1.14300 29.16100
C  21.94400 1.05800 27.76500
C  23.43600 0.83800 27.70800
C  20.32000 1.49500 29.80100
C  21.00100 1.19500 26.57400
O  21.36800 1.18900 25.41700
C  19.44600 1.46900 26.69600
N  26.43900 0.16900 27.31600
C  25.54800 0.29300 26.34100
C  26.18900 0.06900 24.92500
C  27.73100 -0.01000 25.26000
C  27.69500 0.01500 26.81800
C  25.54500 -1.13400 24.17700
C  28.51900 1.10000 24.59300
C  29.85400 0.64900 24.00300
N  27.89800 -0.11200 29.79400
C  28.99000 -0.26300 28.96100
C  30.08800 -0.69100 29.77200
C  29.69800 -0.55100 31.12700
C  28.32100 -0.19300 31.11800
C  31.42300 -1.10700 29.28200
C  30.17600 -0.59300 32.52000
O  31.23000 -0.96300 33.02900
C  28.81000 -0.12800 33.44600
C  28.50200 -1.15100 34.39600
O  27.57900 -1.93000 34.29600
O  29.31100 -1.04800 35.50500
C  29.06500 -2.12600 36.49500
H  22.18200 1.26000 31.83700
H  23.66500 0.64600 25.56600
H  29.70300 -0.30600 26.90500
H  25.82900 -0.35200 34.53000
H  23.76600 1.56200 33.90600
H  22.35300 -0.03400 34.40900
H  23.77900 -0.95200 35.04100
H  23.10600 -1.31400 33.45800
H  25.42400 2.50500 35.02300
H  27.09400 2.25600 34.42500
H  27.85000 1.29700 36.26800
H  26.30600 0.41800 36.45800
H  20.08400 2.49100 29.42800
H  20.46000 1.63600 30.87300
H  19.49000 0.83300 29.55100
H  19.31200 2.38400 27.27400
H  18.87900 0.57700 26.96400
H  19.10200 1.53100 25.66400
H  26.08400 0.92600 24.26000
H  28.04800 -1.00900 24.96000
H  26.34500 -1.78700 23.82700
H  24.86300 -0.83400 23.38100
H  24.93000 -1.70700 24.86900
H  28.70300 1.93600 25.26700
H  27.98200 1.61200 23.79300
H  30.10400 -0.36600 24.31200
H  30.60900 1.32100 24.41200
H  29.90400 0.79600 22.92400
H  31.58400 -1.10700 28.20400
H  31.68500 -2.00300 29.84600
H  32.04200 -0.24000 29.51400
H  29.03700 0.80200 33.96800
H  29.24700 -3.09800 36.03600
H  28.05200 -1.96800 36.86500
H  29.74500 -2.08500 37.34500
Mg 35.66000 1.74600 29.23200
C  33.47200 2.34100 31.89500
C  38.12100 1.24100 31.62500
C  37.79000 1.61500 26.77900
C  33.01700 2.53400 27.01000
N  35.87600 2.18500 31.54100
C  34.82500 2.24700 32.36500
C  35.34000 2.18200 33.76400
C  36.88000 2.27300 33.63100
C  37.00600 1.84600 32.18200
C  37.59500 3.59000 33.93800
C  34.89600 0.87200 34.48900
C  34.26200 0.97200 35.91400
H  34.68800 2.14100 36.85600
N  37.69800 1.31100 29.19900
C  38.45500 0.95400 30.30700
C  39.74800 0.60100 29.81800
C  39.73600 0.82500 28.38300
C  38.39000 1.25600 28.03600
C  40.94400 0.20000 30.70900
C  40.89400 0.72300 27.34900
O  40.78100 0.94900 26.18600
C  42.22500 0.23800 27.88900
N  35.39600 2.02600 27.20700
C  36.47200 1.98000 26.39000
C  36.13800 2.22700 24.89300
C  34.55100 2.25100 24.96900
C  34.26500 2.24500 26.46600
C  36.85300 3.59900 24.36100
C  33.86400 1.14100 24.11300
C  33.41700 -0.12600 24.82000
N  33.60700 2.29400 29.34300
C  32.66300 2.48800 28.37100
C  31.34700 2.76700 29.04600
C  31.64200 2.71200 30.42700
C  33.04500 2.46100 30.58700
C  30.05700 3.20300 28.40600
C  31.07900 2.83900 31.76900
O  29.91300 3.09600 32.08200
C  32.20100 2.44500 32.72500
C  32.26400 3.54000 33.75100
O  32.77700 4.63100 33.58200
O  31.49900 3.13900 34.75300
C  31.03100 4.13600 35.70300
H  38.92600 1.22300 32.36200
H  38.44500 1.39800 25.93300
H  32.19900 2.76200 26.32300
H  34.93300 3.02400 34.32300
H  37.28500 1.57100 34.36000
H  36.96900 4.41100 34.28800
H  38.13600 3.93900 33.05800
H  38.32400 3.36100 34.71500
H  35.66700 0.10200 34.50700
H  34.14500 0.53000 33.77700
H  34.54900 0.03000 36.38300
H  33.17800 1.00900 35.80900
H  41.84000 0.79100 30.51900
H  41.29800 -0.80900 30.49700
H  40.73900 0.22800 31.78000
H  42.13800 -0.68600 28.46100
H  42.66900 1.05000 28.46500
H  42.94900 0.14100 27.08000
H  36.48000 1.41700 24.24900
H  34.11700 3.15500 24.54200
H  36.02900 4.30300 24.24400
H  37.25500 3.51600 23.35100
H  37.53000 4.05700 25.08300
H  34.65800 0.79900 23.44900
H  33.05000 1.52900 23.50100
H  34.25200 -0.36700 25.47900
H  33.30700 -0.80900 23.97800
H  32.56000 -0.11800 25.49300
H  30.04900 3.41600 27.33700
H  29.71100 4.11800 28.88700
H  29.33300 2.43700 28.68200
H  31.98900 1.57300 33.34400
H  31.22900 5.19300 35.52800
H  31.60100 3.89200 36.60000
H  30.07700 3.79700 36.10700


