%nproc=24
%mem=175gb
#p cam-b3lyp/Def2SVP td=(nstates=5) density=(current)

TDDFT excited states in gaussian

0 1
Mg 8.37300 3.02000 27.58300
C  9.66800 1.59900 30.62700
C  6.70500 5.26800 29.53700
C  6.93600 4.14100 24.76700
C  9.73100 0.40000 25.89700
N  8.26000 3.41400 29.92600
C  8.92300 2.70600 30.88600
C  8.72800 3.42100 32.16900
C  7.67000 4.51900 31.87000
C  7.43900 4.42400 30.33700
C  6.33800 4.27100 32.64700
C  9.97700 3.96400 32.81700
C  9.90300 4.49900 34.23800
H  10.91500 4.00800 35.18600
N  7.11500 4.54900 27.20100
C  6.43400 5.32900 28.17600
C  5.69100 6.36700 27.43700
C  5.70300 5.96800 26.10300
C  6.57300 4.78400 25.98300
C  4.94900 7.46900 28.16400
C  5.04400 6.62700 24.87200
O  4.92600 6.07300 23.76300
C  4.55800 8.00900 25.03700
N  8.26900 2.33700 25.58000
C  7.65300 2.93000 24.57800
C  7.79400 2.17100 23.23000
C  8.87800 1.15300 23.59100
C  9.00200 1.33000 25.08700
C  6.44500 1.50000 22.80300
C  10.20800 1.29100 22.88500
C  10.86600 -0.01000 22.39200
N  9.53800 1.41400 28.13000
C  10.02500 0.42800 27.30000
C  10.88100 -0.54000 28.05000
C  10.69600 -0.06300 29.33200
C  9.85900 1.05900 29.36100
C  11.78700 -1.59900 27.50900
C  11.07900 -0.33300 30.71000
O  11.83900 -1.20400 31.11800
C  10.43500 0.73200 31.62700
C  9.77600 0.01400 32.68800
O  8.68700 -0.60500 32.61700
O  10.41500 0.23000 33.87100
C  9.76200 -0.17400 35.09700
H  6.23400 6.04600 30.14100
H  6.34700 4.39700 23.88400
H  9.91800 -0.50400 25.31400
H  8.28800 2.65400 32.80500
H  8.01700 5.51600 32.14200
H  5.84500 5.03100 33.25400
H  6.57700 3.45100 33.32400
H  5.53900 3.81600 32.06100
H  10.35300 4.83500 32.28000
H  10.84000 3.32300 32.63900
H  8.94300 4.25600 34.69100
H  10.21000 5.54200 34.16500
H  3.93400 7.63800 27.80500
H  5.45900 8.43200 28.14900
H  4.76300 7.27700 29.22100
H  5.36300 8.60800 25.46300
H  3.75000 7.88400 25.75700
H  4.37900 8.39200 24.03300
H  8.13900 2.90800 22.50400
H  8.61200 0.10400 23.46400
H  6.50600 0.41300 22.84700
H  6.19800 1.73200 21.76700
H  5.70700 1.85800 23.52100
H  10.93600 1.82600 23.49400
H  10.03500 2.08200 22.15600
H  11.47800 0.25700 21.53100
H  10.15100 -0.81800 22.23400
H  11.45900 -0.28500 23.26400
H  12.83900 -1.31500 27.47600
H  11.33000 -1.91300 26.57100
H  11.63300 -2.52100 28.07100
H  11.28200 1.20800 32.12100
H  8.73800 -0.52700 34.97200
H  9.83700 0.61100 35.84900
H  10.27900 -1.00300 35.58100


