%nproc=24
%mem=175gb
#p cam-b3lyp/Def2SVP td=(nstates=5)

TDDFT excited states in gaussian

0 1
Mg 3.63500 0.41800 44.38500
C  6.38200 2.41600 44.15700
C  1.85600 2.91600 42.76500
C  1.03400 -1.70200 44.27100
C  5.65900 -2.27700 45.39800
N  4.15300 2.34100 43.32400
C  5.35700 2.93700 43.43600
C  5.44100 4.20100 42.66100
C  3.82600 4.53100 42.53700
C  3.19500 3.17000 42.89900
C  3.38200 5.72400 43.43400
C  6.08500 3.93300 41.31000
C  5.45900 2.81500 40.35400
H  5.36900 3.04800 38.85100
N  1.72200 0.57100 43.63100
C  1.11700 1.74400 43.11300
C  -0.27500 1.47100 42.97900
C  -0.55500 0.16000 43.34400
C  0.72000 -0.40500 43.81700
C  -1.17200 2.58100 42.47000
C  -1.87000 -0.57100 43.21500
O  -2.81800 0.09700 42.73200
C  -2.07300 -1.97000 43.39000
N  3.45400 -1.75300 44.57800
C  2.23500 -2.36400 44.54600
C  2.35900 -3.87900 44.83600
C  3.87500 -4.03200 45.19700
C  4.39100 -2.62000 44.97700
C  1.41200 -4.36800 45.91100
C  4.59000 -5.14900 44.26500
C  5.56000 -6.06500 45.02000
N  5.66900 0.04500 44.75000
C  6.32000 -0.99300 45.33600
C  7.63200 -0.52000 45.68500
C  7.75100 0.85800 45.29200
C  6.52700 1.13100 44.70400
C  8.77000 -1.38000 46.11700
C  8.57600 2.01500 45.15500
O  9.73800 2.10000 45.57200
C  7.71800 3.05600 44.46000
C  7.61900 4.24800 45.33700
O  8.63700 4.80700 45.69500
O  6.34700 4.66100 45.59200
C  6.23700 5.85100 46.43800
H  1.24500 3.78600 42.51600
H  0.13600 -2.29700 44.44900
H  6.31200 -3.00800 45.88000
H  6.00100 5.03200 43.09000
H  3.58600 4.93100 41.55100
H  2.93500 6.50500 42.82000
H  4.28700 6.13300 43.88400
H  2.70200 5.45700 44.24400
H  7.14700 3.76700 41.49200
H  6.12500 4.93200 40.87600
H  4.43400 2.52000 40.57900
H  6.17000 1.99900 40.48000
H  -1.10900 2.52700 41.38300
H  -0.76100 3.53900 42.78600
H  -2.21500 2.54500 42.78600
H  -2.88500 -2.34300 42.76500
H  -2.15000 -2.27300 44.43500
H  -1.20000 -2.43300 42.93200
H  2.14200 -4.33200 43.86800
H  3.97500 -4.21900 46.26600
H  0.70500 -3.61400 46.25600
H  1.77700 -4.91000 46.78300
H  0.73700 -5.01500 45.35000
H  5.15900 -4.73200 43.43400
H  3.86400 -5.76700 43.73700
H  5.09600 -7.04700 45.10800
H  5.65500 -5.69200 46.04000
H  6.52700 -6.16100 44.52600
H  8.71100 -1.83500 47.10500
H  9.65100 -0.74100 46.04600
H  8.91100 -2.23600 45.45700
H  8.25000 3.32500 43.54700
H  6.78900 6.65600 45.95200
H  6.55900 5.68400 47.46600
H  5.19100 6.09800 46.61900
Mg -0.43700 44.18600 24.82500
C  1.43400 43.80100 27.72700
C  -3.18200 43.12800 26.59100
C  -2.25600 44.31000 21.89400
C  2.46600 44.70300 22.96600
N  -0.82100 43.63800 26.94100
C  0.04100 43.65300 27.97200
C  -0.60100 43.41700 29.35900
C  -2.06400 42.96100 28.94000
C  -2.04900 43.21000 27.35600
C  -2.28200 41.47000 29.38200
C  -0.53600 44.82000 30.15500
C  0.12400 44.79000 31.56500
H  0.16600 43.36300 32.22200
N  -2.40500 43.72200 24.25200
C  -3.41200 43.37700 25.17700
C  -4.69200 43.40700 24.50200
C  -4.45000 43.69100 23.15200
C  -2.97800 44.00900 23.04400
C  -5.95900 42.85900 25.17400
C  -5.47200 43.73000 21.98500
O  -5.19700 43.99600 20.80000
C  -6.95700 43.49800 22.31300
N  0.09900 44.39300 22.73100
C  -0.90800 44.46700 21.72100
C  -0.26100 44.51400 20.32100
C  1.23600 44.92600 20.70600
C  1.26600 44.70400 22.24100
C  -0.47400 43.18300 19.61900
C  1.52900 46.44600 20.35700
C  0.65700 47.66400 20.81600
N  1.53600 44.17200 25.19400
C  2.63200 44.38000 24.35100
C  3.83100 44.31600 25.12200
C  3.42700 44.13900 26.43300
C  2.02300 43.94900 26.43800
C  5.25700 44.36900 24.61300
C  3.89700 44.01900 27.75600
O  5.03000 43.96500 28.11500
C  2.62100 43.67600 28.63100
C  2.82000 42.26800 29.12000
O  2.22200 41.30700 28.68300
O  3.77300 42.30100 30.05900
C  4.37700 41.01200 30.29200
H  -4.07700 42.87100 27.16100
H  -2.79100 44.11000 20.96400
H  3.38600 44.85200 22.39600
H  -0.09900 42.67700 29.98200
H  -2.86900 43.57400 29.34600
H  -2.77400 40.83600 28.64400
H  -2.90900 41.64900 30.25500
H  -1.32000 41.10700 29.74300
H  -1.54200 45.23900 30.14700
H  0.04200 45.50300 29.53200
H  -0.52900 45.47000 32.11100
H  1.13900 45.18400 31.60700
H  -6.35300 42.07900 24.52200
H  -6.71900 43.64100 25.20200
H  -5.72100 42.49500 26.17300
H  -7.06800 42.43500 22.53100
H  -7.49100 43.66100 21.37700
H  -7.30300 44.26900 23.00100
H  -0.72000 45.37600 19.83600
H  1.94200 44.36800 20.09200
H  -1.38200 42.67100 19.93800
H  0.36900 42.51600 19.79800
H  -0.61300 43.32900 18.54800
H  1.65900 46.51600 19.27700
H  2.46900 46.62800 20.87800
H  -0.12600 47.82100 20.07400
H  1.34000 48.51400 20.83800
H  0.27600 47.62500 21.83700
H  5.47400 45.30000 24.08900
H  5.31100 43.53800 23.91000
H  6.03200 44.40300 25.38000
H  2.44000 44.27600 29.52300
H  5.42200 41.06200 30.59700
H  4.25200 40.18600 29.59200
H  3.93900 40.47400 31.13300


