%nproc=24
%mem=175gb
#p cam-b3lyp/Def2SVP td=(nstates=5)

TDDFT excited states in gaussian

0 1
Mg 3.15800 -0.09400 44.31200
C  5.98100 1.96700 44.12700
C  1.59800 2.25100 42.30500
C  0.53500 -2.15100 44.13700
C  5.14900 -2.67000 45.58500
N  3.88700 1.89700 43.13200
C  5.03800 2.56500 43.33900
C  5.13100 3.86100 42.57000
C  3.59000 4.00400 42.27100
C  2.94600 2.64400 42.52000
C  2.95500 5.03300 43.24400
C  6.13600 3.75500 41.41600
C  6.21000 2.46100 40.57900
H  6.19500 2.64400 39.06600
N  1.34100 0.02700 43.38000
C  0.86600 1.12500 42.71300
C  -0.59800 1.03700 42.63500
C  -0.95100 -0.31800 43.02000
C  0.33900 -0.85500 43.55100
C  -1.47900 2.10800 41.88500
C  -2.32500 -0.98100 42.89500
O  -3.28500 -0.34000 42.56900
C  -2.49000 -2.43600 43.22700
N  2.98400 -2.23900 44.61900
C  1.73200 -2.88100 44.59300
C  1.80300 -4.39600 45.06100
C  3.31600 -4.49100 45.58100
C  3.86000 -3.01900 45.28400
C  0.72300 -4.97700 46.10400
C  4.23400 -5.64500 44.96900
C  5.28000 -6.17800 46.06800
N  5.16300 -0.35600 44.84000
C  5.79800 -1.43100 45.42800
C  7.17100 -1.05900 45.74700
C  7.33000 0.28900 45.33400
C  6.08400 0.65300 44.70700
C  8.16200 -1.87500 46.53500
C  8.23900 1.46700 45.15000
O  9.42700 1.57800 45.35600
C  7.35200 2.56500 44.42300
C  7.28300 3.74500 45.35300
O  8.21800 4.56900 45.51300
O  6.00100 3.85400 45.87200
C  5.72900 5.05600 46.58700
H  1.07500 3.03200 41.74900
H  -0.29600 -2.83600 44.31900
H  5.70000 -3.41500 46.16300
H  5.37600 4.70000 43.22100
H  3.29100 4.31200 41.27000
H  1.94000 4.68000 43.42800
H  3.04000 6.04200 42.84300
H  3.31500 5.08500 44.27200
H  7.12000 3.81500 41.88000
H  5.98200 4.60800 40.75500
H  5.33900 1.84600 40.80400
H  7.15200 1.96400 40.80900
H  -1.46500 2.03800 40.79700
H  -1.16500 3.10900 42.18100
H  -2.53000 2.14700 42.16900
H  -3.47600 -2.80900 42.94800
H  -2.33200 -2.65600 44.28300
H  -1.79700 -2.90200 42.52600
H  1.68700 -4.88400 44.09400
H  3.35000 -4.60600 46.66400
H  -0.10700 -5.37000 45.51800
H  0.37900 -4.20700 46.79400
H  1.20300 -5.75500 46.69800
H  4.88900 -5.25300 44.19100
H  3.62800 -6.44500 44.54300
H  6.30700 -6.00900 45.74400
H  5.13600 -7.24800 46.21500
H  5.31200 -5.69700 47.04500
H  8.31600 -2.82100 46.01700
H  7.75800 -2.08300 47.52600
H  9.13600 -1.39100 46.60500
H  7.97000 2.88400 43.58400
H  4.67500 5.07800 46.86300
H  6.08300 5.93000 46.04000
H  6.20600 5.06600 47.56700
Mg 46.69300 44.58300 44.38700
C  43.25500 44.72400 43.60300
C  46.82600 41.39700 42.97300
C  50.08000 44.92600 44.22900
C  46.41600 48.03600 45.29800
N  45.21700 43.25300 43.45800
C  43.91500 43.52200 43.22400
C  43.24400 42.37600 42.39900
C  44.33300 41.22100 42.58000
C  45.59600 41.99100 43.08500
C  44.09700 40.05700 43.56900
C  43.05200 42.86300 40.91300
C  41.75200 42.34300 40.23900
H  41.89600 41.90400 38.72500
N  48.30200 43.23100 43.87300
C  48.09600 41.97500 43.36700
C  49.37200 41.38600 43.21500
C  50.37100 42.36600 43.49200
C  49.61800 43.58400 43.94300
C  49.62300 39.97500 42.73800
C  51.83400 42.25100 43.23000
O  52.31500 41.27900 42.67000
C  52.80700 43.26800 43.53300
N  48.03900 46.33200 44.62600
C  49.42400 46.11300 44.66400
C  50.13700 47.33600 45.15000
C  48.99300 48.37700 45.43900
C  47.74400 47.57600 45.11400
C  50.98200 46.96700 46.37600
C  49.23100 49.78300 44.77000
C  49.25400 50.97200 45.68200
N  45.14700 46.13000 44.49400
C  45.21100 47.43000 44.93200
C  43.85400 48.01300 45.01800
C  43.09500 46.96600 44.43100
C  43.89400 45.85700 44.22500
C  43.42700 49.41800 45.41300
C  41.78600 46.66700 43.91400
O  40.77400 47.38200 43.84700
C  41.78000 45.23600 43.37700
C  40.72900 44.42700 44.02200
O  39.86700 43.90600 43.41200
O  40.96200 44.18000 45.34400
C  40.02400 43.15900 45.85900
H  46.89000 40.36900 42.60900
H  51.17100 44.93400 44.24400
H  46.14300 49.07400 45.50200
H  42.28400 42.14500 42.86100
H  44.78800 40.86200 41.65700
H  43.41900 40.36700 44.36500
H  44.98600 39.61600 44.02000
H  43.58300 39.28600 42.99600
H  43.92400 42.61300 40.30800
H  43.01600 43.95000 40.98600
H  41.07000 43.18900 40.32600
H  41.42600 41.56000 40.92400
H  50.58400 39.53700 43.00800
H  49.53400 40.05600 41.65500
H  48.81600 39.25800 42.88900
H  52.77800 43.41800 44.61300
H  52.61000 44.18200 42.97200
H  53.79000 42.90400 43.23400
H  50.70700 47.79400 44.34200
H  48.71000 48.54100 46.47900
H  51.11500 45.89200 46.50000
H  50.52200 47.31200 47.30200
H  52.01900 47.25200 46.20100
H  48.42600 49.87600 44.04100
H  50.21400 49.89500 44.31400
H  48.51600 51.67900 45.30400
H  50.21500 51.48600 45.65500
H  49.14300 50.70900 46.73400
H  43.51500 50.13100 44.59300
H  43.93200 49.78600 46.30700
H  42.35600 49.27300 45.55400
H  41.46600 45.23800 42.33400
H  40.25400 43.00100 46.91300
H  40.12100 42.22900 45.29900
H  38.98500 43.48400 45.90100


