%nproc=24
%mem=175gb
#p cam-b3lyp/Def2SVP td=(nstates=5)

TDDFT excited states in gaussian

0 1
Mg -2.17200 16.97900 26.95200
C  -2.72400 15.15000 29.85500
C  -3.03700 19.79700 28.58300
C  -2.39300 18.59300 23.98800
C  -2.09700 13.93400 25.14200
N  -2.70100 17.33200 28.98300
C  -2.73500 16.51500 30.09200
C  -3.14200 17.32600 31.35300
C  -3.73400 18.61600 30.70600
C  -3.02700 18.64900 29.35900
C  -5.29100 18.59800 30.51100
C  -1.92300 17.38000 32.29200
C  -2.24700 17.17600 33.72300
H  -1.11900 16.77000 34.55900
N  -2.42900 18.95600 26.42700
C  -2.71700 19.97700 27.27500
C  -2.49100 21.22100 26.58300
C  -2.29300 20.85800 25.20200
C  -2.45300 19.40200 25.14600
C  -2.60700 22.55600 27.22700
C  -2.12700 21.73600 23.91900
O  -1.95600 21.25500 22.79700
C  -2.02300 23.23300 24.00700
N  -2.58000 16.29000 24.86100
C  -2.48200 17.22200 23.79200
C  -2.41100 16.57800 22.44700
C  -2.09800 15.11800 22.91000
C  -2.20000 15.11800 24.43300
C  -3.71000 16.74000 21.58700
C  -0.67500 14.61400 22.47000
C  0.50900 15.54800 22.82800
N  -2.25800 14.94800 27.37500
C  -2.16300 13.82100 26.54400
C  -2.25500 12.68900 27.38800
C  -2.44400 13.17700 28.67500
C  -2.44900 14.53100 28.60300
C  -2.11400 11.26600 26.95000
C  -2.70100 12.78200 29.98000
O  -2.81800 11.63600 30.45100
C  -2.89700 14.02900 30.89400
C  -1.76000 13.88300 31.95300
O  -0.54300 14.00600 31.72700
O  -2.34900 13.58900 33.17800
C  -1.46500 13.15200 34.30500
H  -3.42500 20.61700 29.19100
H  -2.30900 18.94200 22.95600
H  -1.87100 12.97600 24.66900
H  -3.88000 16.77500 31.93500
H  -3.40400 19.48400 31.27600
H  -5.81600 17.73100 30.91300
H  -5.54300 18.53800 29.45300
H  -5.71700 19.45700 31.02900
H  -1.55900 18.40500 32.23700
H  -1.19600 16.65200 31.93100
H  -2.95800 16.35000 33.74700
H  -2.76300 18.06300 34.09000
H  -2.53500 22.48300 28.31200
H  -3.46700 23.06800 26.79400
H  -1.74500 23.16300 26.95000
H  -2.35600 23.58400 23.03000
H  -0.98600 23.54300 24.13800
H  -2.68700 23.64600 24.76700
H  -1.57800 16.92500 21.83400
H  -2.85900 14.45200 22.50200
H  -4.54500 16.97100 22.24900
H  -4.01900 15.87700 20.99700
H  -3.69300 17.53600 20.84200
H  -0.75400 14.40000 21.40400
H  -0.59800 13.63700 22.94700
H  1.24700 15.06400 23.46800
H  0.07900 16.42200 23.31800
H  1.05200 15.89400 21.94900
H  -3.02600 10.76600 27.27600
H  -1.20700 10.86800 27.40500
H  -2.07500 11.10900 25.87200
H  -3.86000 13.93400 31.39500
H  -0.97000 12.24300 33.96400
H  -1.93600 12.93200 35.26300
H  -0.82600 14.03500 34.31800
Mg 40.46600 8.46800 29.02600
C  42.13100 9.82400 31.82300
C  38.27200 6.93100 31.17900
C  38.87200 7.07400 26.41900
C  43.04200 9.56800 26.92900
N  40.22800 8.55200 31.19800
C  40.93100 9.11600 32.17600
C  40.40800 8.90400 33.61200
C  39.36400 7.73500 33.26600
C  39.31400 7.70200 31.75800
C  39.74100 6.39300 33.84500
C  39.69500 10.21300 34.26600
C  39.76000 10.23100 35.79600
H  40.52600 11.44400 36.38400
N  38.67500 7.29000 28.78400
C  37.94400 6.71700 29.85400
C  36.72400 6.18800 29.28700
C  36.85500 6.23500 27.90200
C  38.16400 6.90300 27.61900
C  35.64600 5.49400 30.09800
C  35.92100 5.81300 26.79100
O  36.21800 6.02700 25.65200
C  34.58600 5.19600 27.06600
N  40.97200 8.15700 27.00800
C  40.11100 7.61300 26.10000
C  40.78500 7.77300 24.70900
C  41.70800 8.97300 24.82300
C  41.98000 8.92500 26.34500
C  41.61300 6.52600 24.40200
C  41.12800 10.25100 24.34100
C  39.73300 10.63200 24.77100
N  42.22500 9.51500 29.25500
C  43.18900 9.89200 28.33900
C  44.24200 10.64200 29.04100
C  43.84000 10.65000 30.38800
C  42.65100 9.97700 30.46100
C  45.46200 11.19800 28.44400
C  44.09900 11.19900 31.69200
O  45.01500 11.97300 32.09800
C  42.93800 10.67900 32.66500
C  43.61600 9.87100 33.74100
O  44.43500 9.03300 33.50500
O  43.17500 10.12500 35.06800
C  43.60100 9.11400 36.08300
H  37.59700 6.39300 31.84700
H  38.44200 6.55400 25.56000
H  43.78300 10.08700 26.31700
H  41.23500 8.65200 34.27700
H  38.42900 8.08400 33.70600
H  39.16600 6.28900 34.76500
H  40.81800 6.26800 33.95900
H  39.27800 5.67800 33.16500
H  38.64200 10.24000 33.98400
H  40.12300 11.12800 33.85600
H  40.22100 9.26500 36.00300
H  38.77200 10.15700 36.25000
H  35.82300 5.83000 31.11900
H  35.93800 4.44600 30.03700
H  34.64100 5.77100 29.77900
H  34.06100 6.07300 27.44500
H  34.59100 4.42700 27.83800
H  34.14900 4.81100 26.14400
H  40.09900 7.86800 23.86800
H  42.63400 8.90500 24.25300
H  42.69600 6.55200 24.52300
H  41.40100 6.24300 23.37100
H  41.23400 5.71200 25.02100
H  41.17500 10.33500 23.25500
H  41.80700 11.00800 24.73300
H  39.85400 11.49300 25.42900
H  39.05700 9.95800 25.29800
H  39.19800 10.99600 23.89400
H  46.11400 10.36800 28.17200
H  45.85400 11.85300 29.22200
H  45.24700 11.72600 27.51400
H  42.43100 11.58700 32.99200
H  44.64200 9.27500 36.36300
H  43.48400 8.08500 35.74000
H  43.10400 9.17100 37.05100


