%nproc=24
%mem=175gb
#p cam-b3lyp/Def2SVP td=(nstates=5) density=(CIS=1)

TDDFT excited states in gaussian

0 1
Mg -2.33100 34.27800 27.06700
C  -3.29300 32.73500 29.99200
C  -0.77900 36.82100 29.04000
C  -1.68900 35.99300 24.34500
C  -4.00500 31.86100 25.19100
N  -2.10600 34.64700 29.26400
C  -2.54800 33.87100 30.25800
C  -2.04400 34.45500 31.61800
C  -1.35700 35.84600 31.23800
C  -1.46000 35.80800 29.70100
C  -2.07400 37.11000 31.67200
C  -1.16200 33.50400 32.44100
C  -1.65900 33.38600 33.87200
H  -0.69900 33.03500 35.01800
N  -1.29600 36.10900 26.75300
C  -0.70200 36.96400 27.63600
C  -0.06500 38.02800 26.99800
C  -0.40300 37.90700 25.60500
C  -1.15900 36.61100 25.50300
C  0.74500 39.09500 27.72000
C  -0.12100 38.87200 24.46500
O  -0.65300 38.65500 23.35900
C  0.65800 40.10800 24.66200
N  -2.76200 33.93100 25.11000
C  -2.33900 34.76200 24.09300
C  -2.78500 34.31300 22.65200
C  -3.27700 32.84000 22.98500
C  -3.37800 32.87200 24.52100
C  -3.86900 35.12000 21.83400
C  -2.50400 31.61000 22.32400
C  -1.18700 31.25300 22.96100
N  -3.52800 32.72900 27.43000
C  -4.16000 31.81100 26.61300
C  -4.85300 30.83200 27.34600
C  -4.49800 31.15000 28.66200
C  -3.68000 32.31700 28.68800
C  -5.57400 29.72900 26.69600
C  -4.80700 30.73800 29.97700
O  -5.59800 29.85900 30.32500
C  -4.00900 31.74000 30.96400
C  -4.95800 32.38400 31.85500
O  -5.73200 33.27000 31.57300
O  -4.95600 31.78800 33.04100
C  -5.91200 32.19500 34.02600
H  -0.35300 37.61900 29.65100
H  -1.55300 36.44800 23.36200
H  -4.51800 31.12700 24.56600
H  -2.99900 34.65700 32.10200
H  -0.41300 35.85600 31.78400
H  -2.94800 36.94200 32.30200
H  -2.45800 37.64200 30.80200
H  -1.35600 37.81800 32.08700
H  -0.10200 33.75800 32.45800
H  -1.18900 32.52900 31.95500
H  -2.34600 32.53900 33.87800
H  -2.14000 34.33700 34.10000
H  0.94800 38.81600 28.75400
H  0.13200 39.99100 27.82000
H  1.62000 39.38400 27.13900
H  0.44000 40.83300 23.87700
H  1.70900 39.83900 24.55200
H  0.43200 40.54800 25.63300
H  -1.93500 34.12600 21.99500
H  -4.26000 32.69700 22.53800
H  -4.17100 35.97400 22.43900
H  -4.79700 34.54700 21.82100
H  -3.62200 35.43900 20.82100
H  -2.25200 31.92600 21.31200
H  -3.11500 30.71700 22.19800
H  -1.06000 30.17800 22.83800
H  -0.96900 31.52500 23.99300
H  -0.42200 31.79500 22.40500
H  -5.20900 29.35700 25.73900
H  -6.66000 29.81200 26.67700
H  -5.43800 28.93700 27.43200
H  -3.30800 31.14200 31.54600
H  -5.54400 33.01100 34.64900
H  -6.05600 31.34600 34.69400
H  -6.83100 32.52000 33.53800


