%nproc=24
%mem=175gb
#p cam-b3lyp/Def2SVP td=(nstates=5) density=(transition=1)

TDDFT excited states in gaussian

0 1
Mg 52.53200 24.27200 45.27800
C  49.69500 26.14500 43.97100
C  51.04500 21.43900 44.03200
C  55.55800 22.86200 45.08400
C  53.78600 27.15600 46.56500
N  50.65200 23.90000 43.94600
C  49.60000 24.82500 43.60600
C  48.41500 24.05300 43.01900
C  48.70000 22.56700 43.38700
C  50.22600 22.57000 43.84000
C  47.76900 22.00700 44.56400
C  48.04400 24.34300 41.59400
C  49.09500 25.06000 40.71400
H  48.96900 25.39700 39.21700
N  53.20200 22.33000 44.76700
C  52.42300 21.31600 44.25500
C  53.27600 20.09300 44.13100
C  54.57100 20.56600 44.32700
C  54.53600 21.98000 44.69300
C  52.68600 18.78600 43.73500
C  55.85700 19.70500 44.16100
O  55.72900 18.56500 43.75100
C  57.24900 20.21900 44.32400
N  54.40600 25.03400 45.62800
C  55.48900 24.15600 45.60300
C  56.74800 24.82300 46.15700
C  56.16900 26.07400 46.91200
C  54.72900 26.07700 46.39400
C  57.69100 23.98800 47.06100
C  56.92500 27.42300 46.68900
C  57.79700 27.94700 47.92000
N  51.87600 26.25900 45.36900
C  52.48600 27.32200 46.01900
C  51.58600 28.44900 46.02500
C  50.55800 28.02100 45.17400
C  50.79100 26.66600 44.83200
C  51.91200 29.79900 46.68700
C  49.30500 28.37700 44.58200
O  48.71800 29.46600 44.74300
C  48.58400 27.14400 43.87700
C  48.23600 27.64400 42.53200
O  48.98500 28.23500 41.74700
O  46.97500 27.21700 42.27700
C  46.32700 27.76200 41.04300
H  50.57900 20.54200 43.62000
H  56.53800 22.38300 45.02800
H  54.16100 28.03300 47.09600
H  47.65100 24.44400 43.69100
H  48.71700 21.90900 42.51800
H  47.15300 21.26400 44.05900
H  47.21300 22.83200 45.01000
H  48.44700 21.51600 45.26300
H  47.08700 24.86300 41.63300
H  47.84600 23.33500 41.22800
H  49.99900 24.46000 40.82300
H  49.29400 26.05200 41.12000
H  53.06600 18.57900 42.73500
H  51.60100 18.88400 43.75400
H  52.95100 18.03100 44.47600
H  57.60500 20.97300 43.62300
H  58.00300 19.45100 44.15400
H  57.23000 20.50700 45.37500
H  57.21200 25.04800 45.19600
H  56.15200 25.77400 47.96000
H  58.56700 23.60300 46.53800
H  57.16500 23.10200 47.41500
H  57.94800 24.60600 47.92200
H  56.28400 28.25100 46.38500
H  57.54500 27.23200 45.81300
H  58.71300 28.26700 47.42400
H  58.01300 27.19900 48.68300
H  57.20100 28.70700 48.42400
H  51.05000 30.36300 47.04400
H  52.35800 30.33200 45.84800
H  52.47600 29.64100 47.60600
H  47.71400 26.85200 44.46700
H  45.32600 27.34000 40.94700
H  46.88700 27.48700 40.14900
H  46.32300 28.83200 41.24600
Mg 16.41100 52.36700 25.56600
C  18.01800 50.88800 28.30000
C  13.92400 53.47100 27.63400
C  14.78500 53.43800 22.89200
C  18.97700 50.98900 23.49400
N  16.01700 52.13900 27.73500
C  16.81400 51.56600 28.70100
C  16.31600 51.93200 30.08700
C  14.87100 52.50500 29.80500
C  15.00600 52.79900 28.27200
C  13.75200 51.51700 30.10900
C  17.38000 52.82700 30.82100
C  16.86600 53.42500 32.16000
H  15.83800 52.61100 32.91800
N  14.67300 53.30500 25.31300
C  13.70900 53.59600 26.27000
C  12.51400 54.21500 25.67000
C  12.80900 54.23100 24.27200
C  14.13200 53.63200 24.11700
C  11.36800 54.71200 26.46900
C  11.91000 54.75300 23.18100
O  12.26900 54.77100 21.97100
C  10.56700 55.35400 23.49600
N  16.86500 52.27500 23.47100
C  15.99700 52.81000 22.61200
C  16.44300 52.50800 21.11400
C  17.81800 51.65600 21.31000
C  17.89300 51.61900 22.83700
C  15.27500 51.72000 20.39100
C  19.11700 52.36100 20.72800
C  19.40800 52.10700 19.22100
N  18.08500 51.15100 25.76500
C  19.11600 50.75400 24.87300
C  20.19800 50.00100 25.64600
C  19.78200 49.96200 26.97300
C  18.52400 50.75100 27.00100
C  21.48500 49.44800 25.11900
C  20.10700 49.55500 28.32000
O  21.06000 48.92400 28.78800
C  19.05800 50.30100 29.28500
C  18.45300 49.37700 30.31700
O  17.48000 48.69900 30.12500
O  19.02600 49.59100 31.59100
C  18.26600 49.12100 32.75900
H  13.19300 53.70900 28.41000
H  14.23600 53.78000 22.01200
H  19.73200 50.45400 22.91400
H  16.24800 51.01000 30.66300
H  14.63800 53.45400 30.28900
H  13.10300 52.02100 30.82500
H  14.20000 50.58000 30.43900
H  13.06200 51.39100 29.27500
H  17.73700 53.44800 30.00000
H  18.21600 52.16100 31.03200
H  16.46200 54.39100 31.85700
H  17.72400 53.56200 32.81800
H  10.55700 54.06200 26.14100
H  11.17100 55.77400 26.32500
H  11.38200 54.60100 27.55400
H  10.71400 56.25300 24.09300
H  10.12800 54.49800 24.01000
H  9.92000 55.56900 22.64600
H  16.62800 53.52500 20.76600
H  17.77900 50.58400 21.11200
H  14.41400 51.50600 21.02400
H  15.64500 50.76000 20.03000
H  14.90700 52.39400 19.61800
H  19.98300 52.23400 21.37700
H  18.92400 53.43100 20.79800
H  19.48300 53.08600 18.74900
H  18.62700 51.45900 18.82300
H  20.36100 51.60000 19.06800
H  22.27100 50.10500 25.49200
H  21.46400 49.41600 24.02900
H  21.78400 48.45300 25.44800
H  19.61000 51.11500 29.75400
H  18.44700 48.04700 32.79300
H  17.22900 49.45300 32.70500
H  18.68800 49.63700 33.62100


