%nproc=24
%mem=175gb
#p cam-b3lyp/Def2SVP td=(nstates=5)

TDDFT excited states in gaussian

0 1
Mg 41.12800 41.85700 26.98600
C  40.12700 44.17900 29.64000
C  41.31000 39.41000 29.48700
C  42.36200 39.82100 24.75900
C  40.70600 44.36300 24.68300
N  40.96700 41.85000 29.29200
C  40.42100 42.87500 30.17300
C  40.33700 42.44400 31.65300
C  40.94600 40.93000 31.52100
C  41.11600 40.67200 30.01100
C  42.22400 40.71400 32.30800
C  38.87900 42.58800 32.18500
C  38.60800 41.92700 33.50300
H  37.80600 42.65600 34.55800
N  41.79000 39.86100 27.08100
C  41.78200 39.01000 28.19200
C  42.26600 37.68700 27.80200
C  42.58400 37.77600 26.38500
C  42.25600 39.19200 25.97700
C  42.31400 36.43000 28.74600
C  43.16500 36.78400 25.44300
O  43.35700 36.97800 24.25000
C  43.44600 35.41200 25.89800
N  41.39000 42.02100 25.04500
C  42.03300 41.09600 24.33000
C  42.18900 41.49200 22.84300
C  41.28100 42.70200 22.76900
C  41.15000 43.12300 24.28400
C  43.62900 41.80100 22.45000
C  39.92300 42.66800 22.11700
C  38.93300 41.74000 22.78800
N  40.64100 43.87900 27.09600
C  40.41100 44.75400 26.01900
C  40.01000 46.03800 26.53900
C  39.83600 45.76900 27.92100
C  40.24100 44.45600 28.22800
C  39.64600 47.28300 25.78400
C  39.34100 46.43200 29.16700
O  38.79000 47.54000 29.34100
C  39.55800 45.41800 30.28800
C  40.41800 46.03500 31.39300
O  41.61900 46.43600 31.36700
O  39.69400 45.95900 32.54600
C  40.38200 46.43100 33.76900
H  41.17000 38.61400 30.22000
H  42.83200 39.17800 24.01200
H  40.57600 45.21400 24.01100
H  40.93200 43.17900 32.19500
H  40.17200 40.21500 31.80000
H  42.06000 39.90200 33.01700
H  42.40500 41.63800 32.85600
H  43.16100 40.69100 31.75200
H  38.23700 42.28000 31.35900
H  38.65800 43.64900 32.30200
H  39.47300 41.65400 34.10700
H  37.99100 41.04400 33.33900
H  41.63300 35.71400 28.28500
H  41.97100 36.63500 29.76000
H  43.34800 36.08500 28.73700
H  43.92500 35.36100 26.87600
H  44.12500 35.02700 25.13800
H  42.45600 34.98600 26.05800
H  41.84700 40.64300 22.25100
H  41.73700 43.52300 22.21500
H  43.81400 41.38100 21.46200
H  44.33400 41.35700 23.15200
H  43.75500 42.87300 22.29400
H  40.06700 42.45700 21.05700
H  39.41200 43.62400 22.23000
H  38.39800 41.12300 22.06700
H  38.14200 42.27600 23.31300
H  39.38000 41.04100 23.49500
H  38.67000 47.63800 26.11400
H  39.60000 47.28100 24.69500
H  40.39300 48.03500 26.03900
H  38.59300 45.21900 30.75500
H  40.75500 45.57700 34.33400
H  39.56300 47.00000 34.20900
H  41.15300 47.17200 33.55400
Mg 35.49600 50.25400 25.27000
C  35.17700 48.23300 28.13300
C  33.95100 52.80200 27.06200
C  35.52400 52.00900 22.45100
C  36.25500 47.31600 23.35100
N  34.65000 50.47900 27.32000
C  34.75900 49.53200 28.34800
C  34.55800 50.22300 29.68400
C  33.90100 51.58900 29.33600
C  34.18900 51.63300 27.80500
C  32.41200 51.77300 29.76700
C  35.85100 50.33500 30.56400
C  35.57700 50.30300 32.13200
H  34.12200 50.22500 32.60200
N  34.96300 52.12400 24.87400
C  34.41800 53.04500 25.75200
C  34.29200 54.33000 25.12700
C  34.61900 54.10800 23.75100
C  35.08400 52.73500 23.66700
C  33.72300 55.59000 25.84800
C  34.52600 55.05800 22.60200
O  34.69900 54.67600 21.42000
C  34.14200 56.56700 22.60300
N  35.57000 49.71100 23.15300
C  35.66800 50.65100 22.19400
C  36.16600 50.02300 20.86800
C  36.37900 48.52900 21.13700
C  36.08600 48.52400 22.70200
C  35.30200 50.41100 19.70700
C  37.75400 47.93500 20.76300
C  38.97000 48.58500 21.46800
N  35.63500 48.14500 25.59300
C  36.09300 47.16800 24.77600
C  36.32500 45.99400 25.61600
C  36.01700 46.32200 26.96600
C  35.54300 47.65500 26.90400
C  36.93800 44.67500 25.15300
C  35.96700 45.83900 28.30900
O  36.34100 44.80600 28.85800
C  35.32300 47.11200 29.16700
C  34.10500 46.63100 29.93300
O  33.00700 46.49100 29.43100
O  34.39500 46.48000 31.27000
C  33.50200 45.67800 32.10000
H  33.57900 53.56200 27.75200
H  35.60400 52.66100 21.57900
H  36.61900 46.49900 22.72500
H  33.85700 49.64500 30.28600
H  34.49900 52.36000 29.82100
H  31.92700 52.02300 28.82400
H  32.30200 52.65000 30.40600
H  31.87100 50.93900 30.21400
H  36.34800 51.29400 30.42100
H  36.54700 49.55500 30.25800
H  35.89400 51.26500 32.53500
H  36.14900 49.47100 32.54200
H  33.11100 56.13200 25.12600
H  34.50500 56.27400 26.17600
H  33.12800 55.50300 26.75700
H  34.79000 57.12800 23.27700
H  33.09000 56.73000 22.83700
H  34.45500 57.11000 21.71200
H  37.07600 50.56600 20.61600
H  35.49800 48.04500 20.71400
H  35.74600 51.19400 19.09200
H  34.31200 50.69900 20.06100
H  35.07200 49.59000 19.02700
H  37.83100 48.14500 19.69600
H  37.75500 46.85700 20.92700
H  39.44400 47.77500 22.02200
H  38.57400 49.35600 22.12900
H  39.64500 49.11900 20.79900
H  37.67500 44.28600 25.85500
H  37.52900 44.80600 24.24700
H  36.12400 43.98800 24.92000
H  36.09300 47.35400 29.90000
H  32.48700 45.91500 31.78000
H  33.56400 45.88200 33.16900
H  33.81500 44.64500 31.94800


