%nproc=24
%mem=175gb
#p cam-b3lyp/Def2SVP td=(nstates=5, root=1) density=current

TDDFT excited states in gaussian

0 1
Mg 40.46600 8.46800 29.02600
C  42.13100 9.82400 31.82300
C  38.27200 6.93100 31.17900
C  38.87200 7.07400 26.41900
C  43.04200 9.56800 26.92900
N  40.22800 8.55200 31.19800
C  40.93100 9.11600 32.17600
C  40.40800 8.90400 33.61200
C  39.36400 7.73500 33.26600
C  39.31400 7.70200 31.75800
C  39.74100 6.39300 33.84500
C  39.69500 10.21300 34.26600
C  39.76000 10.23100 35.79600
H  40.52600 11.44400 36.38400
N  38.67500 7.29000 28.78400
C  37.94400 6.71700 29.85400
C  36.72400 6.18800 29.28700
C  36.85500 6.23500 27.90200
C  38.16400 6.90300 27.61900
C  35.64600 5.49400 30.09800
C  35.92100 5.81300 26.79100
O  36.21800 6.02700 25.65200
C  34.58600 5.19600 27.06600
N  40.97200 8.15700 27.00800
C  40.11100 7.61300 26.10000
C  40.78500 7.77300 24.70900
C  41.70800 8.97300 24.82300
C  41.98000 8.92500 26.34500
C  41.61300 6.52600 24.40200
C  41.12800 10.25100 24.34100
C  39.73300 10.63200 24.77100
N  42.22500 9.51500 29.25500
C  43.18900 9.89200 28.33900
C  44.24200 10.64200 29.04100
C  43.84000 10.65000 30.38800
C  42.65100 9.97700 30.46100
C  45.46200 11.19800 28.44400
C  44.09900 11.19900 31.69200
O  45.01500 11.97300 32.09800
C  42.93800 10.67900 32.66500
C  43.61600 9.87100 33.74100
O  44.43500 9.03300 33.50500
O  43.17500 10.12500 35.06800
C  43.60100 9.11400 36.08300
H  37.59700 6.39300 31.84700
H  38.44200 6.55400 25.56000
H  43.78300 10.08700 26.31700
H  41.23500 8.65200 34.27700
H  38.42900 8.08400 33.70600
H  39.16600 6.28900 34.76500
H  40.81800 6.26800 33.95900
H  39.27800 5.67800 33.16500
H  38.64200 10.24000 33.98400
H  40.12300 11.12800 33.85600
H  40.22100 9.26500 36.00300
H  38.77200 10.15700 36.25000
H  35.82300 5.83000 31.11900
H  35.93800 4.44600 30.03700
H  34.64100 5.77100 29.77900
H  34.06100 6.07300 27.44500
H  34.59100 4.42700 27.83800
H  34.14900 4.81100 26.14400
H  40.09900 7.86800 23.86800
H  42.63400 8.90500 24.25300
H  42.69600 6.55200 24.52300
H  41.40100 6.24300 23.37100
H  41.23400 5.71200 25.02100
H  41.17500 10.33500 23.25500
H  41.80700 11.00800 24.73300
H  39.85400 11.49300 25.42900
H  39.05700 9.95800 25.29800
H  39.19800 10.99600 23.89400
H  46.11400 10.36800 28.17200
H  45.85400 11.85300 29.22200
H  45.24700 11.72600 27.51400
H  42.43100 11.58700 32.99200
H  44.64200 9.27500 36.36300
H  43.48400 8.08500 35.74000
H  43.10400 9.17100 37.05100


