%nproc=24
%mem=175gb
#p cam-b3lyp/Def2SVP td=(nstates=5) density=(transition=1)

TDDFT excited states in gaussian

0 1
Mg -2.04400 17.49100 26.73800
C  -2.15500 15.53600 29.75200
C  -2.48400 20.32400 28.82400
C  -2.10000 19.56800 23.93100
C  -2.02900 14.73500 24.85000
N  -2.50300 17.81300 29.09300
C  -2.37100 16.88400 30.06400
C  -2.66300 17.53000 31.46600
C  -2.96600 19.01100 31.04000
C  -2.55400 19.10600 29.55300
C  -4.45800 19.41500 31.30700
C  -1.49000 17.42200 32.44000
C  -1.82900 17.03100 33.84100
H  -0.68700 16.80800 34.84300
N  -2.05000 19.60600 26.40500
C  -2.24700 20.56500 27.39300
C  -2.18900 21.87200 26.76900
C  -1.98200 21.71100 25.40900
C  -2.11500 20.23400 25.17200
C  -2.46700 23.16900 27.47300
C  -1.85900 22.77200 24.24000
O  -1.68000 22.55800 23.06600
C  -1.78900 24.24000 24.60100
N  -2.21300 17.23900 24.73600
C  -2.21800 18.17300 23.73300
C  -2.50700 17.54400 22.35000
C  -2.23600 16.00100 22.60900
C  -2.12000 15.99700 24.18100
C  -3.92800 17.89500 21.80400
C  -0.96100 15.44100 21.90800
C  0.37100 15.96600 22.43900
N  -2.11100 15.55600 27.12300
C  -2.02800 14.45800 26.22200
C  -2.06000 13.19200 26.95100
C  -2.05400 13.57600 28.30400
C  -2.07200 14.99400 28.37800
C  -2.02800 11.85900 26.36100
C  -2.05700 13.00500 29.64700
O  -1.98500 11.83800 29.99400
C  -2.21400 14.25700 30.66700
C  -1.01500 13.99300 31.58100
O  0.19500 14.13800 31.33000
O  -1.45400 13.50000 32.72600
C  -0.50700 13.41700 33.91100
H  -2.54500 21.19300 29.48200
H  -2.11900 20.13500 22.99700
H  -1.94800 13.88000 24.17600
H  -3.47200 16.92500 31.87400
H  -2.32200 19.72000 31.56200
H  -4.61000 20.30200 31.92200
H  -5.09400 18.58600 31.61800
H  -5.01600 19.78600 30.44700
H  -1.29200 18.47500 32.64100
H  -0.61800 16.92800 32.01000
H  -2.49700 16.18800 34.02500
H  -2.37000 17.90200 34.21100
H  -2.54100 23.02800 28.55100
H  -3.37300 23.68600 27.15300
H  -1.69300 23.93100 27.38000
H  -0.93800 24.47000 25.24200
H  -2.76500 24.39500 25.06100
H  -1.83600 24.73500 23.63100
H  -1.82000 18.06600 21.68300
H  -3.08800 15.32400 22.54300
H  -3.89400 18.55600 20.93800
H  -4.67200 18.26800 22.50700
H  -4.29000 16.90500 21.52600
H  -1.14700 15.45600 20.83400
H  -0.92500 14.37100 22.11200
H  0.30800 16.76300 23.17900
H  0.88600 16.37900 21.57200
H  0.96700 15.25500 23.01000
H  -2.06800 11.03700 27.07600
H  -1.09600 11.82400 25.79700
H  -2.85300 11.79600 25.65000
H  -3.07800 14.15100 31.32300
H  -1.14400 13.30000 34.78800
H  0.04800 14.34000 34.07600
H  0.23900 12.62700 33.81700
Mg -9.26600 18.27700 42.96500
C  -5.81100 17.58000 42.98100
C  -8.47400 21.42900 42.13900
C  -12.47500 18.67000 42.48700
C  -9.75200 14.74100 43.14100
N  -7.34400 19.34600 42.56200
C  -6.06200 18.93000 42.69300
C  -5.04000 20.02200 42.45000
C  -5.98500 21.29000 42.45900
C  -7.37700 20.70000 42.36700
C  -5.82600 22.23200 43.72300
C  -4.08200 20.00700 41.18000
C  -4.36600 19.09100 39.96000
H  -3.96500 19.61900 38.53200
N  -10.31800 19.93500 42.50700
C  -9.83700 21.10100 42.09700
C  -10.97100 21.97200 41.68400
C  -12.19800 21.17200 41.95900
C  -11.67600 19.85500 42.32500
C  -10.82500 23.41900 41.29700
C  -13.61600 21.63300 41.74500
O  -13.81100 22.79100 41.38400
C  -14.89900 20.73300 41.88300
N  -10.94800 16.84400 42.71500
C  -12.12100 17.37600 42.70200
C  -13.18200 16.19300 42.82000
C  -12.25700 14.97500 42.77500
C  -10.85500 15.54600 42.86600
C  -14.16200 16.18100 44.00500
C  -12.30000 14.18000 41.36900
C  -12.88700 12.75700 41.40300
N  -8.10600 16.49700 42.98200
C  -8.41600 15.17700 43.17700
C  -7.19300 14.39200 43.48700
C  -6.09500 15.27800 43.29700
C  -6.75800 16.56600 43.10100
C  -7.09800 12.86900 43.72900
C  -4.68100 15.45100 43.26700
O  -3.71100 14.67400 43.28400
C  -4.42500 16.97400 43.13600
C  -3.61000 17.39300 44.36300
O  -2.45500 17.69200 44.51200
O  -4.50700 17.60300 45.41600
C  -3.95600 18.13500 46.70100
H  -8.18700 22.44600 41.86300
H  -13.54300 18.86100 42.35700
H  -9.93500 13.71100 43.45300
H  -4.44700 20.04900 43.36400
H  -5.75600 21.91400 41.59500
H  -5.11000 21.81600 44.43100
H  -6.79600 22.11100 44.20400
H  -5.58800 23.24500 43.39800
H  -3.08000 19.78600 41.54800
H  -3.99700 21.02300 40.79300
H  -5.44200 18.91700 39.97000
H  -3.77000 18.17900 39.94600
H  -11.77100 23.96000 41.28900
H  -10.25700 23.43000 40.36600
H  -10.11700 23.80900 42.02900
H  -15.08400 20.15000 42.78600
H  -14.85100 19.96100 41.11500
H  -15.81700 21.30800 41.76500
H  -13.87700 16.19700 41.98100
H  -12.39400 14.18200 43.51100
H  -14.02600 17.04700 44.65300
H  -14.09900 15.25100 44.57100
H  -15.20700 16.25900 43.70500
H  -11.30400 14.05300 40.94700
H  -12.88100 14.81200 40.69700
H  -12.44900 12.05100 40.69700
H  -13.92900 12.87300 41.10500
H  -12.71100 12.44000 42.43100
H  -7.98800 12.30200 43.45800
H  -6.94100 12.78400 44.80400
H  -6.18900 12.50600 43.25000
H  -3.84800 17.16600 42.23200
H  -2.93200 17.88100 46.97400
H  -4.58000 17.65400 47.45400
H  -4.05900 19.20000 46.91000


