%nproc=24
%mem=175gb
#p cam-b3lyp/Def2SVP td=(nstates=5)

TDDFT excited states in gaussian

0 1
Mg 17.10100 -2.07700 27.77000
C  16.45500 -0.19100 30.58100
C  19.23600 -3.94700 29.68100
C  17.96100 -3.74600 24.96300
C  15.37700 0.23000 25.82200
N  17.83400 -1.91300 29.91400
C  17.31200 -1.24300 30.86800
C  17.86400 -1.55200 32.35400
C  18.99500 -2.58100 31.95700
C  18.76000 -2.80300 30.38800
C  20.50900 -2.04800 32.15900
C  16.79200 -2.13400 33.37400
C  16.96200 -1.78000 34.89400
H  18.25700 -1.14000 35.29400
N  18.31900 -3.63600 27.38700
C  19.10500 -4.38300 28.35000
C  19.74900 -5.47800 27.63200
C  19.48000 -5.36700 26.24500
C  18.51900 -4.24500 26.14900
C  20.50800 -6.46400 28.44500
C  19.91900 -6.24400 25.04900
O  19.71600 -6.00400 23.89600
C  20.84100 -7.42500 25.41400
N  16.84100 -1.78700 25.63700
C  17.26600 -2.56700 24.69400
C  17.04700 -1.94200 23.28700
C  16.12300 -0.73100 23.56000
C  16.07300 -0.74300 25.10600
C  18.39300 -1.56900 22.63000
C  14.74200 -0.86000 22.84700
C  14.78100 -0.68700 21.32000
N  16.09100 -0.30700 28.09200
C  15.35600 0.45700 27.20300
C  14.73300 1.49900 27.97600
C  15.14100 1.35600 29.33600
C  15.94900 0.18700 29.29900
C  13.91400 2.52600 27.44500
C  15.02300 1.80700 30.68600
O  14.43000 2.83800 31.12300
C  15.98100 0.86900 31.51800
C  16.98700 1.71200 32.12800
O  17.99700 2.11700 31.55300
O  16.51500 2.07400 33.36400
C  17.31500 3.14200 34.00000
H  19.94300 -4.54500 30.25900
H  18.26400 -4.34800 24.10300
H  14.78900 0.88500 25.17500
H  18.31000 -0.60500 32.65900
H  18.90200 -3.48800 32.55400
H  20.47800 -0.95900 32.20400
H  21.12500 -2.36600 31.31800
H  21.03200 -2.40200 33.04800
H  16.90400 -3.21300 33.27100
H  15.74800 -2.07700 33.06400
H  16.83100 -2.63200 35.56100
H  16.22600 -1.02300 35.16500
H  21.52400 -6.11200 28.62600
H  20.42400 -7.48300 28.06700
H  20.00400 -6.52900 29.40900
H  20.33800 -8.26100 25.90100
H  21.56700 -6.93500 26.06200
H  21.42700 -7.84100 24.59500
H  16.51200 -2.73300 22.76200
H  16.63000 0.18800 23.26600
H  19.22100 -1.38900 23.31600
H  18.44300 -0.64500 22.05300
H  18.63700 -2.41000 21.98100
H  14.08400 -0.07400 23.21500
H  14.28900 -1.82100 23.09300
H  15.82700 -0.60000 21.02600
H  14.42000 0.31100 21.07100
H  14.22200 -1.38300 20.69500
H  13.25200 2.01200 26.74800
H  14.42200 3.30300 26.87400
H  13.44500 3.05700 28.27400
H  15.32300 0.48100 32.29600
H  17.17000 4.03200 33.38700
H  18.34600 2.83300 34.16900
H  16.87700 3.33200 34.98000
Mg 40.54200 8.71200 29.57000
C  42.46900 10.35300 31.83700
C  38.24000 7.70200 31.93300
C  38.87500 6.96300 27.14400
C  43.10200 9.33000 27.08900
N  40.50700 8.83000 31.66000
C  41.28100 9.79100 32.39300
C  40.70700 10.01900 33.73400
C  39.62800 8.84800 33.81600
C  39.41100 8.39300 32.39000
C  40.09700 7.61800 34.74300
C  40.24300 11.48300 34.00600
C  40.64100 12.04200 35.33400
H  40.55300 11.05000 36.56000
N  38.75400 7.55700 29.53000
C  38.00600 7.28200 30.63600
C  36.89200 6.50300 30.21600
C  36.97400 6.32300 28.78000
C  38.23000 7.03300 28.36500
C  35.87900 5.90900 31.21900
C  36.08100 5.65900 27.77900
O  36.28700 5.46300 26.57600
C  34.68000 5.19900 28.33400
N  40.98100 8.10600 27.39000
C  40.09800 7.49500 26.64000
C  40.46000 7.54300 25.15700
C  41.81600 8.30500 25.16100
C  42.00400 8.59400 26.64900
C  40.56900 6.08800 24.47000
C  41.66000 9.63200 24.29500
C  40.74000 10.78700 24.76200
N  42.48900 9.50900 29.49800
C  43.34000 9.72700 28.43100
C  44.44800 10.55700 28.94600
C  44.20300 10.86700 30.25000
C  42.96700 10.18300 30.54000
C  45.69600 10.84800 28.18600
C  44.66700 11.56800 31.44700
O  45.66700 12.23600 31.65000
C  43.53700 11.23400 32.51700
C  44.17900 10.46300 33.60100
O  44.82400 9.40400 33.50900
O  43.90700 11.19500 34.73900
C  44.28800 10.53200 35.99300
H  37.46200 7.40700 32.64000
H  38.23300 6.48700 26.39900
H  43.84700 9.59300 26.33600
H  41.53500 9.82500 34.41700
H  38.70200 9.27400 34.20100
H  40.95100 7.85100 35.37900
H  40.49700 6.86600 34.06300
H  39.17400 7.30300 35.22800
H  39.15600 11.54000 33.94800
H  40.73700 12.04000 33.21000
H  39.99600 12.85500 35.66500
H  41.60800 12.52200 35.48500
H  35.14900 6.60800 31.62700
H  36.53200 5.46300 31.96900
H  35.20300 5.18600 30.76300
H  34.82100 4.32000 28.96300
H  33.98600 5.15200 27.49500
H  34.17100 5.96300 28.92200
H  39.71300 8.14400 24.63900
H  42.64100 7.73100 24.73900
H  39.67900 5.98600 23.84800
H  40.55600 5.31000 25.23400
H  41.39700 5.86900 23.79700
H  41.39900 9.47200 23.24900
H  42.67000 10.03800 24.36000
H  41.45000 11.59500 24.93900
H  40.14900 10.52600 25.63900
H  40.01100 11.10100 24.01500
H  45.97000 11.83700 28.55200
H  45.54800 10.83600 27.10600
H  46.48500 10.23100 28.61400
H  43.32700 12.24400 32.86800
H  44.09900 11.31400 36.72900
H  45.36500 10.37600 35.93100
H  43.84100 9.55300 36.16700


