%nproc=24
%mem=175gb
#p cam-b3lyp/Def2SVP td=(nstates=5) density=(current)

TDDFT excited states in gaussian

0 1
Mg 44.80500 2.87200 46.67800
C  42.56400 5.57100 46.81800
C  42.13800 0.79200 46.35700
C  47.01300 0.52400 46.12300
C  47.34200 5.37800 46.17800
N  42.64100 3.17100 46.66900
C  41.94200 4.34400 46.71700
C  40.48300 4.04900 46.33800
C  40.34000 2.59000 46.75700
C  41.78900 2.14300 46.48400
C  39.96100 2.42600 48.24700
C  40.23600 4.25700 44.79800
C  39.26900 5.45400 44.33400
H  39.83900 6.57400 43.44700
N  44.60700 0.93700 46.23600
C  43.41900 0.24600 46.16900
C  43.72000 -1.14400 46.02500
C  45.14200 -1.32500 46.06900
C  45.67600 0.06600 46.14000
C  42.62100 -2.25300 45.89000
C  45.87200 -2.71700 46.06400
O  45.23700 -3.72500 46.11700
C  47.31400 -2.74100 46.27700
N  46.83800 2.95400 45.90000
C  47.54500 1.82700 46.15300
C  49.01900 2.09000 46.41200
C  49.17500 3.56200 46.06200
C  47.67600 4.02200 46.03300
C  49.44600 1.78300 47.89500
C  49.96600 3.97900 44.73400
C  51.33300 4.60700 44.78400
N  45.00300 4.99200 46.72600
C  46.07700 5.86500 46.51000
C  45.65700 7.24900 46.55200
C  44.29400 7.16900 46.69900
C  43.89900 5.79300 46.77900
C  46.53700 8.41600 46.37700
C  43.08200 7.96600 46.81100
O  42.95000 9.19400 46.88400
C  41.94500 6.98400 47.00000
C  41.32800 7.26400 48.36600
O  42.00600 7.20100 49.38900
O  40.00100 7.70700 48.25300
C  39.36700 8.02300 49.50500
H  41.26200 0.14300 46.41400
H  47.71200 -0.30200 46.26300
H  48.13300 6.13000 46.13700
H  39.87300 4.80700 46.83000
H  39.59400 2.12600 46.11300
H  39.12500 1.73800 48.12600
H  39.66800 3.42600 48.56800
H  40.73100 2.03300 48.91100
H  39.76200 3.35000 44.42300
H  41.21000 4.30800 44.31200
H  38.98200 5.96200 45.25500
H  38.33700 5.13200 43.87100
H  42.71600 -2.97100 45.07600
H  41.68000 -1.71700 45.76200
H  42.51800 -2.85500 46.79300
H  47.88700 -2.17400 45.54300
H  47.64600 -3.77900 46.25800
H  47.54400 -2.49600 47.31300
H  49.67000 1.44400 45.82200
H  49.62700 4.10200 46.89400
H  49.91800 0.80800 48.01500
H  48.60400 1.96800 48.56200
H  50.20200 2.52100 48.16700
H  49.41200 4.48800 43.94600
H  50.09500 2.95900 44.37100
H  52.11800 3.97300 44.37300
H  51.60000 4.81700 45.82000
H  51.22600 5.52900 44.21300
H  47.39900 8.09600 45.79100
H  46.88900 8.66700 47.37800
H  45.99500 9.26600 45.96500
H  41.25100 7.27600 46.21300
H  39.04600 7.15600 50.08300
H  38.48400 8.64500 49.36100
H  39.98200 8.61300 50.18400


