%nproc=24
%mem=175gb
#p cam-b3lyp/Def2SVP td=(nstates=5, root=1) density=current

TDDFT excited states in gaussian

0 1
Mg -2.04400 17.49100 26.73800
C  -2.15500 15.53600 29.75200
C  -2.48400 20.32400 28.82400
C  -2.10000 19.56800 23.93100
C  -2.02900 14.73500 24.85000
N  -2.50300 17.81300 29.09300
C  -2.37100 16.88400 30.06400
C  -2.66300 17.53000 31.46600
C  -2.96600 19.01100 31.04000
C  -2.55400 19.10600 29.55300
C  -4.45800 19.41500 31.30700
C  -1.49000 17.42200 32.44000
C  -1.82900 17.03100 33.84100
H  -0.68700 16.80800 34.84300
N  -2.05000 19.60600 26.40500
C  -2.24700 20.56500 27.39300
C  -2.18900 21.87200 26.76900
C  -1.98200 21.71100 25.40900
C  -2.11500 20.23400 25.17200
C  -2.46700 23.16900 27.47300
C  -1.85900 22.77200 24.24000
O  -1.68000 22.55800 23.06600
C  -1.78900 24.24000 24.60100
N  -2.21300 17.23900 24.73600
C  -2.21800 18.17300 23.73300
C  -2.50700 17.54400 22.35000
C  -2.23600 16.00100 22.60900
C  -2.12000 15.99700 24.18100
C  -3.92800 17.89500 21.80400
C  -0.96100 15.44100 21.90800
C  0.37100 15.96600 22.43900
N  -2.11100 15.55600 27.12300
C  -2.02800 14.45800 26.22200
C  -2.06000 13.19200 26.95100
C  -2.05400 13.57600 28.30400
C  -2.07200 14.99400 28.37800
C  -2.02800 11.85900 26.36100
C  -2.05700 13.00500 29.64700
O  -1.98500 11.83800 29.99400
C  -2.21400 14.25700 30.66700
C  -1.01500 13.99300 31.58100
O  0.19500 14.13800 31.33000
O  -1.45400 13.50000 32.72600
C  -0.50700 13.41700 33.91100
H  -2.54500 21.19300 29.48200
H  -2.11900 20.13500 22.99700
H  -1.94800 13.88000 24.17600
H  -3.47200 16.92500 31.87400
H  -2.32200 19.72000 31.56200
H  -4.61000 20.30200 31.92200
H  -5.09400 18.58600 31.61800
H  -5.01600 19.78600 30.44700
H  -1.29200 18.47500 32.64100
H  -0.61800 16.92800 32.01000
H  -2.49700 16.18800 34.02500
H  -2.37000 17.90200 34.21100
H  -2.54100 23.02800 28.55100
H  -3.37300 23.68600 27.15300
H  -1.69300 23.93100 27.38000
H  -0.93800 24.47000 25.24200
H  -2.76500 24.39500 25.06100
H  -1.83600 24.73500 23.63100
H  -1.82000 18.06600 21.68300
H  -3.08800 15.32400 22.54300
H  -3.89400 18.55600 20.93800
H  -4.67200 18.26800 22.50700
H  -4.29000 16.90500 21.52600
H  -1.14700 15.45600 20.83400
H  -0.92500 14.37100 22.11200
H  0.30800 16.76300 23.17900
H  0.88600 16.37900 21.57200
H  0.96700 15.25500 23.01000
H  -2.06800 11.03700 27.07600
H  -1.09600 11.82400 25.79700
H  -2.85300 11.79600 25.65000
H  -3.07800 14.15100 31.32300
H  -1.14400 13.30000 34.78800
H  0.04800 14.34000 34.07600
H  0.23900 12.62700 33.81700


