%nproc=24
%mem=175gb
#p cam-b3lyp/Def2SVP td=(nstates=5)

TDDFT excited states in gaussian

0 1
Mg -2.51200 34.32000 26.71000
C  -3.70600 32.37000 29.49400
C  -1.09600 36.45200 28.85600
C  -2.23500 36.47200 24.15600
C  -4.45400 32.24200 24.65700
N  -2.47200 34.41100 28.88300
C  -2.84200 33.43600 29.82500
C  -2.27900 33.77800 31.25700
C  -1.51600 35.11400 31.00700
C  -1.64900 35.32300 29.47500
C  -1.96800 36.32500 31.78300
C  -1.39500 32.57400 31.88800
C  -1.81300 32.12300 33.29300
H  -0.66900 32.23700 34.36800
N  -1.63700 36.15800 26.50500
C  -1.11000 36.89500 27.48800
C  -0.61000 38.17800 26.99100
C  -1.04200 38.20400 25.62000
C  -1.69000 36.91400 25.36100
C  0.10900 39.14600 27.82900
C  -0.90500 39.45100 24.69100
O  -1.22300 39.41800 23.51400
C  -0.35500 40.75800 25.16600
N  -3.22300 34.33100 24.76300
C  -2.85500 35.30500 23.84100
C  -3.39300 34.95800 22.41400
C  -3.78700 33.44000 22.55100
C  -3.77600 33.28900 24.07200
C  -4.45800 35.91300 21.78300
C  -2.78800 32.46000 21.87700
C  -3.33300 31.25600 21.15100
N  -3.86100 32.67700 26.98500
C  -4.55900 31.95500 26.05900
C  -5.21600 30.76800 26.76200
C  -4.86600 30.86600 28.08700
C  -4.10200 32.07900 28.18800
C  -5.97600 29.69500 26.01600
C  -4.98700 30.30300 29.42000
O  -5.62100 29.26000 29.68400
C  -4.28200 31.35300 30.46900
C  -5.23900 32.03400 31.42500
O  -6.23700 32.64900 31.00000
O  -4.96700 31.73200 32.76000
C  -6.09800 32.02100 33.63400
H  -0.51900 37.13000 29.48800
H  -2.04400 37.20300 23.36800
H  -4.93400 31.57200 23.94000
H  -3.19000 33.89300 31.84400
H  -0.52800 34.94900 31.43900
H  -2.83400 36.13100 32.41600
H  -2.36000 36.92300 30.96100
H  -1.18900 36.74500 32.42000
H  -0.38600 32.98500 31.87000
H  -1.36700 31.74700 31.17900
H  -2.21200 31.11400 33.18900
H  -2.62300 32.76200 33.64700
H  -0.25500 40.16900 27.91900
H  1.01900 39.36100 27.27000
H  0.49900 38.75500 28.76900
H  0.66500 40.53600 25.48200
H  -0.91700 41.02300 26.06200
H  -0.46600 41.44500 24.32800
H  -2.50600 35.02500 21.78400
H  -4.81400 33.23900 22.24700
H  -4.50900 36.75000 22.47900
H  -5.42000 35.44200 21.58300
H  -4.08600 36.40600 20.88400
H  -2.24500 32.16900 22.77600
H  -2.06500 32.93000 21.21000
H  -2.75000 31.18100 20.23300
H  -4.37700 31.36900 20.85700
H  -3.03100 30.39100 21.74200
H  -5.97600 29.97600 24.96300
H  -7.01700 29.73400 26.33600
H  -5.54700 28.71900 26.24200
H  -3.48200 30.82800 30.99100
H  -6.59400 31.14900 34.05800
H  -6.86800 32.64200 33.17600
H  -5.69700 32.60500 34.46200
Mg -9.26600 18.27700 42.96500
C  -5.81100 17.58000 42.98100
C  -8.47400 21.42900 42.13900
C  -12.47500 18.67000 42.48700
C  -9.75200 14.74100 43.14100
N  -7.34400 19.34600 42.56200
C  -6.06200 18.93000 42.69300
C  -5.04000 20.02200 42.45000
C  -5.98500 21.29000 42.45900
C  -7.37700 20.70000 42.36700
C  -5.82600 22.23200 43.72300
C  -4.08200 20.00700 41.18000
C  -4.36600 19.09100 39.96000
H  -3.96500 19.61900 38.53200
N  -10.31800 19.93500 42.50700
C  -9.83700 21.10100 42.09700
C  -10.97100 21.97200 41.68400
C  -12.19800 21.17200 41.95900
C  -11.67600 19.85500 42.32500
C  -10.82500 23.41900 41.29700
C  -13.61600 21.63300 41.74500
O  -13.81100 22.79100 41.38400
C  -14.89900 20.73300 41.88300
N  -10.94800 16.84400 42.71500
C  -12.12100 17.37600 42.70200
C  -13.18200 16.19300 42.82000
C  -12.25700 14.97500 42.77500
C  -10.85500 15.54600 42.86600
C  -14.16200 16.18100 44.00500
C  -12.30000 14.18000 41.36900
C  -12.88700 12.75700 41.40300
N  -8.10600 16.49700 42.98200
C  -8.41600 15.17700 43.17700
C  -7.19300 14.39200 43.48700
C  -6.09500 15.27800 43.29700
C  -6.75800 16.56600 43.10100
C  -7.09800 12.86900 43.72900
C  -4.68100 15.45100 43.26700
O  -3.71100 14.67400 43.28400
C  -4.42500 16.97400 43.13600
C  -3.61000 17.39300 44.36300
O  -2.45500 17.69200 44.51200
O  -4.50700 17.60300 45.41600
C  -3.95600 18.13500 46.70100
H  -8.18700 22.44600 41.86300
H  -13.54300 18.86100 42.35700
H  -9.93500 13.71100 43.45300
H  -4.44700 20.04900 43.36400
H  -5.75600 21.91400 41.59500
H  -5.11000 21.81600 44.43100
H  -6.79600 22.11100 44.20400
H  -5.58800 23.24500 43.39800
H  -3.08000 19.78600 41.54800
H  -3.99700 21.02300 40.79300
H  -5.44200 18.91700 39.97000
H  -3.77000 18.17900 39.94600
H  -11.77100 23.96000 41.28900
H  -10.25700 23.43000 40.36600
H  -10.11700 23.80900 42.02900
H  -15.08400 20.15000 42.78600
H  -14.85100 19.96100 41.11500
H  -15.81700 21.30800 41.76500
H  -13.87700 16.19700 41.98100
H  -12.39400 14.18200 43.51100
H  -14.02600 17.04700 44.65300
H  -14.09900 15.25100 44.57100
H  -15.20700 16.25900 43.70500
H  -11.30400 14.05300 40.94700
H  -12.88100 14.81200 40.69700
H  -12.44900 12.05100 40.69700
H  -13.92900 12.87300 41.10500
H  -12.71100 12.44000 42.43100
H  -7.98800 12.30200 43.45800
H  -6.94100 12.78400 44.80400
H  -6.18900 12.50600 43.25000
H  -3.84800 17.16600 42.23200
H  -2.93200 17.88100 46.97400
H  -4.58000 17.65400 47.45400
H  -4.05900 19.20000 46.91000


