%nproc=24
%mem=175gb
#p PBE1PBE/Def2SVP td=(nstates=5) density=(transition=1)

TDDFT excited states in gaussian

0 1
Mg 24.45900 -7.80400 45.73000
C  26.58600 -5.04500 44.57700
C  21.88700 -6.07400 44.19000
C  22.84100 -10.55200 45.75100
C  27.52200 -9.37000 46.76800
N  24.34300 -5.76600 44.35600
C  25.30500 -4.83000 44.04500
C  24.68800 -3.74900 43.08400
C  23.16700 -3.94300 43.21100
C  23.11900 -5.33100 43.95600
C  22.33200 -2.87300 44.03000
C  25.23700 -3.82200 41.61800
C  25.48800 -2.49900 40.92700
H  24.41700 -2.03400 39.89100
N  22.60400 -8.23500 45.19100
C  21.64700 -7.40100 44.68000
C  20.38100 -8.15500 44.46900
C  20.67900 -9.47200 44.90600
C  22.09500 -9.47000 45.26500
C  19.08200 -7.63000 43.83600
C  19.81800 -10.73300 44.78900
O  18.67600 -10.59500 44.35900
C  20.22700 -12.02800 45.16700
N  25.20700 -9.77600 45.95500
C  24.19400 -10.69000 46.16700
C  24.84300 -12.02000 46.71400
C  26.38100 -11.70100 46.72900
C  26.35300 -10.16200 46.56900
C  24.30300 -12.52000 48.08200
C  27.32200 -12.42400 45.68300
C  27.76100 -13.86800 45.98200
N  26.63200 -7.37200 45.76700
C  27.69000 -8.05400 46.33400
C  28.89800 -7.26500 46.33900
C  28.50100 -6.05100 45.66300
C  27.12300 -6.13300 45.25800
C  30.21600 -7.74700 46.86200
C  28.99300 -4.84100 45.17500
O  30.13700 -4.41700 45.08200
C  27.84800 -4.18900 44.34700
C  27.67100 -2.81900 44.95900
O  27.62100 -1.78000 44.29600
O  27.39300 -2.80300 46.38500
C  26.88100 -1.51100 46.83900
H  21.04400 -5.51700 43.77700
H  22.37000 -11.50900 45.98500
H  28.34500 -9.94300 47.20000
H  24.83100 -2.76600 43.53500
H  22.69900 -4.12200 42.24300
H  21.79800 -2.30300 43.27000
H  22.98800 -2.17400 44.54800
H  21.67600 -3.27700 44.80100
H  24.55300 -4.27200 40.89800
H  26.19500 -4.34200 41.59800
H  26.49400 -2.54600 40.51000
H  25.50300 -1.72600 41.69600
H  18.22200 -8.02700 44.37600
H  19.15100 -7.95200 42.79700
H  19.01200 -6.54700 43.92800
H  20.35400 -12.03800 46.25000
H  21.09800 -12.40800 44.63300
H  19.40000 -12.62300 44.77800
H  24.71500 -12.87500 46.05100
H  26.80800 -11.85300 47.72000
H  25.17900 -12.58000 48.72800
H  23.87600 -13.51200 47.93800
H  23.57100 -11.76000 48.35800
H  28.20300 -11.78200 45.65400
H  26.82800 -12.52100 44.71600
H  27.32600 -14.00800 46.97200
H  28.83900 -13.92900 46.13800
H  27.42200 -14.64300 45.29500
H  30.43000 -8.65700 46.30300
H  30.17700 -8.08000 47.89900
H  31.04400 -7.08900 46.59800
H  28.22500 -4.06500 43.33200
H  26.34600 -1.90700 47.70300
H  26.35400 -0.97600 46.04900
H  27.73900 -0.96400 47.23000
Mg 35.49600 50.25400 25.27000
C  35.17700 48.23300 28.13300
C  33.95100 52.80200 27.06200
C  35.52400 52.00900 22.45100
C  36.25500 47.31600 23.35100
N  34.65000 50.47900 27.32000
C  34.75900 49.53200 28.34800
C  34.55800 50.22300 29.68400
C  33.90100 51.58900 29.33600
C  34.18900 51.63300 27.80500
C  32.41200 51.77300 29.76700
C  35.85100 50.33500 30.56400
C  35.57700 50.30300 32.13200
H  34.12200 50.22500 32.60200
N  34.96300 52.12400 24.87400
C  34.41800 53.04500 25.75200
C  34.29200 54.33000 25.12700
C  34.61900 54.10800 23.75100
C  35.08400 52.73500 23.66700
C  33.72300 55.59000 25.84800
C  34.52600 55.05800 22.60200
O  34.69900 54.67600 21.42000
C  34.14200 56.56700 22.60300
N  35.57000 49.71100 23.15300
C  35.66800 50.65100 22.19400
C  36.16600 50.02300 20.86800
C  36.37900 48.52900 21.13700
C  36.08600 48.52400 22.70200
C  35.30200 50.41100 19.70700
C  37.75400 47.93500 20.76300
C  38.97000 48.58500 21.46800
N  35.63500 48.14500 25.59300
C  36.09300 47.16800 24.77600
C  36.32500 45.99400 25.61600
C  36.01700 46.32200 26.96600
C  35.54300 47.65500 26.90400
C  36.93800 44.67500 25.15300
C  35.96700 45.83900 28.30900
O  36.34100 44.80600 28.85800
C  35.32300 47.11200 29.16700
C  34.10500 46.63100 29.93300
O  33.00700 46.49100 29.43100
O  34.39500 46.48000 31.27000
C  33.50200 45.67800 32.10000
H  33.57900 53.56200 27.75200
H  35.60400 52.66100 21.57900
H  36.61900 46.49900 22.72500
H  33.85700 49.64500 30.28600
H  34.49900 52.36000 29.82100
H  31.92700 52.02300 28.82400
H  32.30200 52.65000 30.40600
H  31.87100 50.93900 30.21400
H  36.34800 51.29400 30.42100
H  36.54700 49.55500 30.25800
H  35.89400 51.26500 32.53500
H  36.14900 49.47100 32.54200
H  33.11100 56.13200 25.12600
H  34.50500 56.27400 26.17600
H  33.12800 55.50300 26.75700
H  34.79000 57.12800 23.27700
H  33.09000 56.73000 22.83700
H  34.45500 57.11000 21.71200
H  37.07600 50.56600 20.61600
H  35.49800 48.04500 20.71400
H  35.74600 51.19400 19.09200
H  34.31200 50.69900 20.06100
H  35.07200 49.59000 19.02700
H  37.83100 48.14500 19.69600
H  37.75500 46.85700 20.92700
H  39.44400 47.77500 22.02200
H  38.57400 49.35600 22.12900
H  39.64500 49.11900 20.79900
H  37.67500 44.28600 25.85500
H  37.52900 44.80600 24.24700
H  36.12400 43.98800 24.92000
H  36.09300 47.35400 29.90000
H  32.48700 45.91500 31.78000
H  33.56400 45.88200 33.16900
H  33.81500 44.64500 31.94800


