%nproc=24
%mem=175gb
#p PBE1PBE/Def2SVP td=(nstates=5) density=(transition=1)

TDDFT excited states in gaussian

0 1
Mg 40.46600 8.46800 29.02600
C  42.13100 9.82400 31.82300
C  38.27200 6.93100 31.17900
C  38.87200 7.07400 26.41900
C  43.04200 9.56800 26.92900
N  40.22800 8.55200 31.19800
C  40.93100 9.11600 32.17600
C  40.40800 8.90400 33.61200
C  39.36400 7.73500 33.26600
C  39.31400 7.70200 31.75800
C  39.74100 6.39300 33.84500
C  39.69500 10.21300 34.26600
C  39.76000 10.23100 35.79600
H  40.52600 11.44400 36.38400
N  38.67500 7.29000 28.78400
C  37.94400 6.71700 29.85400
C  36.72400 6.18800 29.28700
C  36.85500 6.23500 27.90200
C  38.16400 6.90300 27.61900
C  35.64600 5.49400 30.09800
C  35.92100 5.81300 26.79100
O  36.21800 6.02700 25.65200
C  34.58600 5.19600 27.06600
N  40.97200 8.15700 27.00800
C  40.11100 7.61300 26.10000
C  40.78500 7.77300 24.70900
C  41.70800 8.97300 24.82300
C  41.98000 8.92500 26.34500
C  41.61300 6.52600 24.40200
C  41.12800 10.25100 24.34100
C  39.73300 10.63200 24.77100
N  42.22500 9.51500 29.25500
C  43.18900 9.89200 28.33900
C  44.24200 10.64200 29.04100
C  43.84000 10.65000 30.38800
C  42.65100 9.97700 30.46100
C  45.46200 11.19800 28.44400
C  44.09900 11.19900 31.69200
O  45.01500 11.97300 32.09800
C  42.93800 10.67900 32.66500
C  43.61600 9.87100 33.74100
O  44.43500 9.03300 33.50500
O  43.17500 10.12500 35.06800
C  43.60100 9.11400 36.08300
H  37.59700 6.39300 31.84700
H  38.44200 6.55400 25.56000
H  43.78300 10.08700 26.31700
H  41.23500 8.65200 34.27700
H  38.42900 8.08400 33.70600
H  39.16600 6.28900 34.76500
H  40.81800 6.26800 33.95900
H  39.27800 5.67800 33.16500
H  38.64200 10.24000 33.98400
H  40.12300 11.12800 33.85600
H  40.22100 9.26500 36.00300
H  38.77200 10.15700 36.25000
H  35.82300 5.83000 31.11900
H  35.93800 4.44600 30.03700
H  34.64100 5.77100 29.77900
H  34.06100 6.07300 27.44500
H  34.59100 4.42700 27.83800
H  34.14900 4.81100 26.14400
H  40.09900 7.86800 23.86800
H  42.63400 8.90500 24.25300
H  42.69600 6.55200 24.52300
H  41.40100 6.24300 23.37100
H  41.23400 5.71200 25.02100
H  41.17500 10.33500 23.25500
H  41.80700 11.00800 24.73300
H  39.85400 11.49300 25.42900
H  39.05700 9.95800 25.29800
H  39.19800 10.99600 23.89400
H  46.11400 10.36800 28.17200
H  45.85400 11.85300 29.22200
H  45.24700 11.72600 27.51400
H  42.43100 11.58700 32.99200
H  44.64200 9.27500 36.36300
H  43.48400 8.08500 35.74000
H  43.10400 9.17100 37.05100
Mg 29.51000 58.90800 41.21400
C  26.38900 57.48600 40.17300
C  31.07800 56.05600 39.82600
C  32.44700 60.51200 41.46200
C  27.84100 61.85400 41.88400
N  28.82700 56.95900 40.12100
C  27.51800 56.70000 39.82500
C  27.43600 55.53200 38.85500
C  28.91100 54.97600 39.03000
C  29.71500 56.02800 39.69400
C  29.08100 53.62400 39.80100
C  26.96300 56.03100 37.45200
C  25.85600 55.22200 36.65900
H  26.19700 54.60200 35.29200
N  31.43900 58.34900 40.91600
C  31.91100 57.13400 40.35300
C  33.36200 57.11100 40.33800
C  33.74700 58.43000 40.81400
C  32.51100 59.13800 41.09000
C  34.11400 55.98100 39.76900
C  35.21500 58.86100 40.97700
O  36.08800 58.03800 40.57400
C  35.69500 60.19600 41.58500
N  30.14600 61.00100 41.36300
C  31.38600 61.37000 41.62100
C  31.40400 62.84700 41.84900
C  29.90900 63.22000 42.03600
C  29.21400 61.95000 41.65200
C  32.31600 63.46200 42.99500
C  29.40100 64.48800 41.17400
C  28.93400 65.75600 41.93000
N  27.56300 59.51200 41.26600
C  27.03200 60.71300 41.55100
C  25.61900 60.69600 41.44600
C  25.33000 59.42300 40.94900
C  26.56000 58.73200 40.80800
C  24.61100 61.72700 41.76100
C  24.21900 58.63400 40.51400
O  23.05400 58.95300 40.43300
C  24.92200 57.26000 39.91000
C  24.42400 56.08500 40.63500
O  24.27500 56.00600 41.86100
O  24.19400 55.10700 39.69100
C  23.68300 53.83100 40.18900
H  31.62000 55.20100 39.41900
H  33.35900 61.11200 41.46000
H  27.25300 62.67600 42.29800
H  26.78700 54.79200 39.32400
H  29.19500 54.98000 37.97700
H  29.75800 53.81000 40.63600
H  29.53300 52.82700 39.21100
H  28.17800 53.23200 40.27000
H  27.91200 55.97700 36.91900
H  26.65200 57.07400 37.39700
H  25.02500 55.92000 36.55900
H  25.42300 54.48900 37.33900
H  33.71100 55.81900 38.76900
H  33.89700 55.07100 40.32800
H  35.20300 56.02600 39.79800
H  35.47200 60.98900 40.87100
H  36.68900 59.96900 41.96900
H  35.05300 60.30300 42.46000
H  31.80800 63.29500 40.94200
H  29.82800 63.26800 43.12200
H  32.55800 64.46300 42.63700
H  33.18900 62.82200 43.12200
H  31.69200 63.52000 43.88700
H  28.59500 64.07600 40.56700
H  30.17400 64.71200 40.43900
H  27.96900 66.12300 41.58300
H  29.69100 66.53100 41.80700
H  28.89100 65.63000 43.01200
H  23.61700 61.29700 41.88000
H  24.71500 62.31200 40.84700
H  25.04500 62.40800 42.49300
H  24.83500 57.21500 38.82500
H  22.80800 53.96700 40.82500
H  24.47100 53.30400 40.72900
H  23.37200 53.22500 39.33800


