%nproc=24
%mem=175gb
#p PBE1PBE/Def2SVP td=(nstates=5) density=(transition=1)

TDDFT excited states in gaussian

0 1
Mg 8.82800 2.97900 28.39100
C  10.36500 1.60400 31.10700
C  7.59700 5.54500 30.49200
C  7.11400 4.23300 25.80200
C  10.13400 0.47400 26.43700
N  8.69300 3.35100 30.57800
C  9.52500 2.68500 31.48700
C  9.40600 3.27200 32.92200
C  8.46000 4.46400 32.61800
C  8.16100 4.43600 31.13000
C  7.12300 4.69600 33.44300
C  10.76000 3.72700 33.62500
C  10.50900 4.32800 35.03400
H  10.96800 3.41400 36.17100
N  7.54400 4.72800 28.17300
C  7.38800 5.73600 29.10000
C  6.47100 6.69300 28.49200
C  6.33200 6.29300 27.12400
C  7.02200 5.05300 26.95500
C  5.95900 7.85000 29.26000
C  5.41800 7.05100 26.09900
O  5.12000 6.60100 24.97400
C  4.78500 8.36300 26.48300
N  8.63500 2.44800 26.51900
C  7.83100 3.12600 25.56000
C  7.67200 2.29800 24.30500
C  8.94400 1.45600 24.38400
C  9.32300 1.47600 25.85800
C  6.36700 1.43300 24.30400
C  10.11600 2.06600 23.58300
C  10.22200 1.75100 22.11500
N  9.99100 1.29200 28.61900
C  10.57300 0.45400 27.74600
C  11.35400 -0.51100 28.46200
C  11.33200 -0.10700 29.78000
C  10.51600 1.03400 29.82700
C  12.08500 -1.61500 27.78100
C  11.82500 -0.42000 31.05300
O  12.58200 -1.29100 31.43600
C  11.20500 0.70900 32.00300
C  10.44000 0.02800 33.08200
O  9.42100 -0.60800 32.96400
O  10.93800 0.32100 34.28700
C  10.21200 -0.27100 35.47600
H  7.38800 6.37900 31.16500
H  6.56600 4.63400 24.94700
H  10.68600 -0.27500 25.86600
H  8.89500 2.54300 33.55100
H  9.00500 5.40000 32.74400
H  6.85500 5.73300 33.64700
H  7.10100 4.02900 34.30500
H  6.33500 4.37900 32.76000
H  11.20100 4.41000 32.90000
H  11.41200 2.85700 33.70200
H  9.47300 4.65600 35.11900
H  11.13500 5.21700 35.10500
H  4.89200 7.69700 29.42300
H  6.27900 8.73500 28.71000
H  6.46700 7.93200 30.22100
H  4.23800 8.77300 25.63400
H  5.63600 9.03200 26.61800
H  4.16200 8.37000 27.37700
H  7.64200 2.93000 23.41700
H  8.80000 0.42300 24.06800
H  6.45900 0.58300 24.97900
H  6.13800 1.09500 23.29300
H  5.57600 2.10700 24.63100
H  11.08800 1.85700 24.02800
H  10.10000 3.15100 23.68700
H  10.17300 2.70400 21.58900
H  9.27100 1.26300 21.90100
H  11.07000 1.12100 21.84600
H  13.12700 -1.33900 27.62400
H  11.63900 -2.06200 26.89200
H  12.10800 -2.42700 28.50800
H  12.02700 1.28100 32.43400
H  9.15600 -0.02800 35.35600
H  10.52300 0.16000 36.42800
H  10.37400 -1.34900 35.46000


