%nproc=24
%mem=175gb
#p PBE1PBE/Def2SVP td=(nstates=5) density=(transition=1)

TDDFT excited states in gaussian

0 1
Mg 1.29600 7.71300 26.88100
C  1.46900 9.82700 29.67000
C  2.42600 5.06900 28.94700
C  1.47300 5.72500 24.13400
C  0.92500 10.50000 24.87700
N  1.69900 7.49100 29.04900
C  1.51500 8.49600 30.00300
C  1.43800 7.84300 31.43000
C  1.83300 6.38800 31.15200
C  2.05200 6.30500 29.60100
C  3.12000 6.01700 31.93700
C  0.04000 8.06800 31.99300
C  -0.12000 8.13500 33.50300
H  1.05800 7.66300 34.38500
N  1.84800 5.68100 26.53500
C  2.31100 4.77600 27.50900
C  2.63500 3.49600 26.90400
C  2.31300 3.59100 25.49300
C  1.87500 5.04400 25.33500
C  3.03900 2.24400 27.69300
C  2.37500 2.55400 24.38800
O  2.03400 2.84400 23.24900
C  2.64700 1.14500 24.75200
N  1.13700 8.09300 24.78900
C  1.15400 7.08500 23.87300
C  0.77800 7.64200 22.47500
C  0.53200 9.18300 22.70900
C  0.76500 9.29400 24.23800
C  1.89300 7.33600 21.45900
C  -0.89600 9.67800 22.35700
C  -0.86300 10.38200 21.00400
N  1.30900 9.79300 27.10700
C  1.22300 10.82400 26.23200
C  1.50800 12.06900 26.98600
C  1.50300 11.75700 28.31400
C  1.42300 10.34100 28.32600
C  1.55300 13.42200 26.29600
C  1.55800 12.26300 29.69200
O  1.68500 13.41500 30.08900
C  1.44800 11.03500 30.57500
C  2.56000 11.13900 31.53300
O  3.76600 10.89700 31.38900
O  2.04800 11.65700 32.70500
C  2.99200 11.90900 33.77200
H  2.69600 4.26200 29.63100
H  1.45200 4.99400 23.32300
H  0.89300 11.33000 24.16800
H  2.21800 8.40600 31.94400
H  1.06000 5.77700 31.61800
H  4.00400 5.85500 31.32000
H  2.97100 4.99800 32.29300
H  3.38200 6.77100 32.67900
H  -0.56100 7.28300 31.53300
H  -0.37400 8.97400 31.55200
H  -1.02500 7.59600 33.78000
H  -0.31800 9.19800 33.64500
H  3.22100 2.42800 28.75200
H  3.95300 1.82100 27.27400
H  2.28900 1.47200 27.52500
H  1.81900 0.77800 25.35900
H  3.66100 1.02700 25.13400
H  2.61600 0.48900 23.88200
H  -0.10600 7.10300 22.13500
H  1.34500 9.68200 22.18000
H  2.33200 8.19000 20.94400
H  1.31000 6.77100 20.73200
H  2.77000 6.84600 21.88100
H  -1.17200 10.51700 22.99600
H  -1.64500 8.88600 22.34300
H  -1.71200 9.95300 20.47200
H  -0.02300 10.09700 20.37100
H  -0.94100 11.46900 21.03900
H  1.59500 13.38900 25.20700
H  2.38500 14.03800 26.63500
H  0.58900 13.91000 26.44400
H  0.47700 11.06900 31.06800
H  3.81000 12.49700 33.35500
H  3.40600 11.00100 34.21100
H  2.51900 12.68100 34.37800
Mg 47.33900 34.91800 28.07800
C  45.68800 33.19800 30.68300
C  48.10100 37.44900 30.24400
C  48.24300 36.72400 25.47200
C  46.07200 32.47700 25.83700
N  47.02000 35.19800 30.25900
C  46.36000 34.38500 31.06000
C  46.67100 34.77400 32.49400
C  47.03300 36.30500 32.38100
C  47.41200 36.35800 30.85400
C  45.84200 37.21500 32.86800
C  47.88800 34.00400 33.06800
C  47.98300 33.94800 34.65600
H  46.95600 34.64300 35.55400
N  48.24300 36.70300 27.90700
C  48.56900 37.63000 28.93000
C  49.30300 38.76000 28.31400
C  49.26700 38.57700 26.88500
C  48.57000 37.29400 26.64900
C  49.93800 39.85800 29.09200
C  49.83100 39.42600 25.68000
O  49.78800 39.06500 24.49600
C  50.32700 40.81500 25.96000
N  47.07800 34.69300 25.91700
C  47.58500 35.54400 25.06500
C  47.43000 35.17200 23.61700
C  46.71000 33.78100 23.71200
C  46.68600 33.56800 25.25900
C  46.76800 36.29200 22.80900
C  47.43400 32.63900 23.01000
C  46.53900 31.60900 22.23200
N  46.16500 33.09500 28.16200
C  45.77400 32.19200 27.15400
C  45.18200 31.05300 27.76700
C  44.95200 31.44600 29.12400
C  45.59700 32.64100 29.31900
C  44.92100 29.73400 27.09800
C  44.48300 31.08700 30.48400
O  43.89600 30.09800 30.87100
C  44.73800 32.34900 31.43800
C  44.99200 31.90700 32.84200
O  45.89000 31.21500 33.22200
O  43.96300 32.32800 33.70500
C  43.67300 31.45600 34.86300
H  48.20800 38.37100 30.82000
H  48.63100 37.17100 24.55500
H  45.76300 31.70600 25.12800
H  45.78600 34.43600 33.03300
H  47.91000 36.55500 32.97900
H  44.99600 36.59900 33.17100
H  45.50600 37.70100 31.95200
H  46.07700 37.86100 33.71400
H  48.75200 34.55000 32.68700
H  47.86600 33.00400 32.63500
H  48.97800 34.33500 34.88100
H  48.01300 32.88400 34.89200
H  50.02200 39.76300 30.17400
H  49.40400 40.80200 28.98700
H  50.95300 39.89900 28.69600
H  51.37600 40.86200 26.25200
H  49.62900 41.09200 26.75100
H  50.11900 41.39300 25.06000
H  48.46800 35.04700 23.30900
H  45.69100 33.78300 23.32700
H  46.13600 36.95200 23.40400
H  46.11300 35.78300 22.10300
H  47.49100 36.91500 22.28200
H  48.02000 32.05200 23.71700
H  48.21400 33.13900 22.43600
H  45.47900 31.78000 22.41900
H  46.81500 30.64200 22.65200
H  46.65400 31.52300 21.15100
H  44.41500 29.99000 26.16700
H  44.28000 29.05700 27.66300
H  45.86600 29.26100 26.82900
H  43.79600 32.88200 31.56300
H  43.90900 32.01600 35.76800
H  44.22800 30.51800 34.82500
H  42.60300 31.25600 34.80700


