%nproc=24
%mem=175gb
#p PBE1PBE/Def2SVP td=(nstates=5) density=(transition=1)

TDDFT excited states in gaussian

0 1
Mg 24.36900 -6.98700 46.60800
C  26.68400 -4.76900 45.35200
C  21.90100 -5.12400 45.15800
C  22.46500 -9.68400 46.72500
C  27.03400 -8.80400 47.99500
N  24.41600 -5.40800 45.00500
C  25.43000 -4.51800 44.85100
C  25.02900 -3.31400 44.05100
C  23.50400 -3.26400 44.39000
C  23.25600 -4.65400 44.95700
C  23.12700 -2.08400 45.33100
C  25.27600 -3.52100 42.47300
C  25.72300 -2.21200 41.67100
H  24.68300 -1.93800 40.61300
N  22.38400 -7.27700 46.19700
C  21.52700 -6.46900 45.53500
C  20.22900 -7.11300 45.37800
C  20.37200 -8.43000 45.86100
C  21.79800 -8.50600 46.28600
C  19.04300 -6.37400 44.71200
C  19.31200 -9.48200 45.68900
O  18.25700 -9.18500 45.19200
C  19.48300 -10.96700 46.06200
N  24.62900 -8.97800 47.39100
C  23.73100 -9.85500 47.30000
C  24.17900 -11.20600 47.72000
C  25.67400 -10.94700 48.15800
C  25.81200 -9.52100 47.84300
C  23.22200 -11.82700 48.79300
C  26.70500 -11.85900 47.34500
C  28.13900 -12.05100 47.95500
N  26.42100 -6.83200 46.76500
C  27.35000 -7.59400 47.45000
C  28.63900 -6.96000 47.42800
C  28.41400 -5.78200 46.63300
C  27.10800 -5.81900 46.18400
C  29.90100 -7.42400 48.08100
C  29.04200 -4.60800 46.13300
O  30.18200 -4.13000 46.19600
C  28.00800 -4.00400 45.12600
C  27.97900 -2.53300 45.37600
O  28.65400 -1.69700 44.75900
O  27.14200 -2.25800 46.42200
C  27.16400 -0.79200 46.68700
H  21.02900 -4.53900 44.85700
H  21.83100 -10.57200 46.69600
H  27.87200 -9.43200 48.30700
H  25.56100 -2.49300 44.53000
H  22.94300 -3.07800 43.47400
H  22.46400 -1.40000 44.80200
H  24.04300 -1.52500 45.52500
H  22.72200 -2.51300 46.24700
H  24.47600 -4.01300 41.92000
H  26.07600 -4.24200 42.30800
H  26.63900 -2.51400 41.16300
H  25.99300 -1.30800 42.21700
H  18.63800 -6.86100 43.82500
H  19.24900 -5.33100 44.46900
H  18.26300 -6.29000 45.46800
H  19.62500 -11.12900 47.13000
H  20.27800 -11.46900 45.51000
H  18.60200 -11.45500 45.64400
H  24.15900 -11.77400 46.79000
H  25.92100 -11.00100 49.21800
H  22.84600 -12.76100 48.37600
H  22.40400 -11.15300 49.04800
H  23.73300 -12.22400 49.67000
H  26.84400 -11.46000 46.34000
H  26.21500 -12.82700 47.25100
H  28.51200 -13.04100 48.21600
H  28.22300 -11.52500 48.90500
H  28.89100 -11.63100 47.28700
H  29.81500 -8.26400 48.77000
H  30.19100 -6.49700 48.57400
H  30.52400 -7.56700 47.19800
H  28.23100 -4.20700 44.07800
H  28.13300 -0.51500 47.10100
H  26.50700 -0.50200 47.50700
H  26.90400 -0.28600 45.75700
Mg 7.63600 56.80200 41.94500
C  6.62500 53.44600 41.38500
C  10.68100 55.97500 40.45800
C  8.03200 60.02500 41.40500
C  4.22800 57.38500 43.14900
N  8.45000 54.91300 40.78100
C  7.95700 53.66100 40.95000
C  8.99000 52.64800 40.49000
C  10.32900 53.33300 40.76400
C  9.81400 54.85400 40.60800
C  10.97600 53.14900 42.13800
C  8.68800 52.22300 38.98700
C  8.78600 50.76200 38.78500
H  9.47200 50.26400 37.49800
N  9.15000 57.91900 40.99500
C  10.37200 57.38400 40.51700
C  11.15700 58.50500 40.06500
C  10.49600 59.72000 40.38700
C  9.15900 59.29200 40.93300
C  12.51600 58.28800 39.40700
C  10.98000 61.08400 40.08900
O  12.05800 61.21700 39.52300
C  10.25300 62.36800 40.32000
N  6.19300 58.49600 42.17300
C  6.76600 59.71000 42.05200
C  5.81300 60.81300 42.54700
C  4.61500 59.97500 43.27000
C  5.02400 58.52600 42.89900
C  6.51300 61.95400 43.41400
C  3.16600 60.37300 42.84800
C  2.45300 59.49100 41.76700
N  5.85400 55.73100 42.22300
C  4.59600 56.10000 42.77900
C  3.77800 54.83100 43.01200
C  4.55200 53.84100 42.42800
C  5.79000 54.43400 41.99000
C  2.39800 54.58300 43.65100
C  4.62700 52.43800 42.17000
O  3.86200 51.52600 42.48800
C  5.87100 52.24300 41.37900
C  5.33600 51.93400 39.96200
O  4.91100 52.73800 39.13500
O  5.35200 50.52000 39.80700
C  4.79600 49.97200 38.63700
H  11.68700 55.76400 40.08900
H  8.33200 61.07300 41.34400
H  3.25200 57.43300 43.63500
H  9.01800 51.75000 41.10700
H  11.18700 53.14700 40.11900
H  10.60100 52.28700 42.68900
H  11.03000 54.09000 42.68600
H  12.00300 52.89400 41.87400
H  9.43500 52.68300 38.34000
H  7.77500 52.65300 38.57500
H  7.73900 50.46500 38.83400
H  9.33600 50.33800 39.62500
H  13.35000 58.53400 40.06400
H  12.53800 58.83400 38.46500
H  12.64500 57.23800 39.14400
H  10.18000 62.52800 41.39600
H  9.25600 62.43600 39.88300
H  10.86800 63.22900 40.06100
H  5.41300 61.22100 41.61900
H  4.75100 60.04000 44.34900
H  7.57600 62.02500 43.18400
H  6.34900 61.97700 44.49200
H  5.91600 62.83300 43.16600
H  3.09900 61.41000 42.52000
H  2.61700 60.24800 43.78100
H  1.86900 60.30400 41.33500
H  1.78000 58.70400 42.10800
H  3.21700 59.14200 41.07200
H  2.47400 53.89100 44.48900
H  1.98400 53.99700 42.83100
H  1.91500 55.55200 43.77500
H  6.40600 51.37000 41.75300
H  4.82800 48.88300 38.58500
H  5.36500 50.36200 37.79400
H  3.76000 50.31200 38.63400


