%nproc=24
%mem=175gb
#p PBE1PBE/Def2SVP td=(nstates=5) density=(transition=1)

TDDFT excited states in gaussian

0 1
Mg 53.03600 23.47300 43.74200
C  50.27300 25.68400 43.34900
C  50.89700 20.80500 43.54400
C  55.76900 21.39500 43.06400
C  55.19900 26.21400 43.34600
N  50.76700 23.35900 43.20300
C  49.85000 24.33200 43.33000
C  48.49000 23.71000 43.58900
C  48.66000 22.11500 43.58600
C  50.27200 22.11900 43.58300
C  48.04000 21.54600 44.88200
C  47.47500 24.17900 42.55900
C  47.98000 24.34500 41.10600
H  47.51400 23.28000 40.07600
N  53.32100 21.33300 43.43700
C  52.26200 20.45300 43.38400
C  52.84400 19.14800 43.34900
C  54.26800 19.24400 43.11100
C  54.55100 20.69600 43.23900
C  52.01300 17.88700 43.29400
C  55.22500 18.13300 42.67600
O  54.80000 17.01500 42.45700
C  56.63100 18.33100 42.48800
N  55.16000 23.75300 43.17000
C  56.04500 22.76900 43.10900
C  57.45600 23.24500 42.80400
C  57.16400 24.78400 42.53600
C  55.80000 24.97000 43.09600
C  58.49900 22.99600 44.00000
C  57.34100 25.12500 40.98500
C  58.47200 25.99800 40.52000
N  52.84200 25.47200 43.66600
C  53.82600 26.48100 43.63200
C  53.20700 27.81500 43.74300
C  51.85100 27.50000 43.65700
C  51.62900 26.08900 43.48500
C  53.87500 29.20800 44.01000
C  50.52800 28.13200 43.63200
O  50.14800 29.31100 43.72400
C  49.45600 27.00700 43.45200
C  48.88400 27.41400 42.13800
O  49.50700 27.53100 41.11400
O  47.60700 27.75600 42.28300
C  46.79800 28.12100 41.06800
H  50.22500 19.97800 43.78200
H  56.71400 20.86800 42.91800
H  55.94300 26.97900 43.11200
H  48.29500 24.16100 44.56200
H  48.23100 21.65000 42.69800
H  47.24600 20.85400 44.60200
H  47.57500 22.29200 45.52700
H  48.83900 20.99200 45.37400
H  47.06700 25.14300 42.86300
H  46.65900 23.46100 42.47200
H  49.05000 24.24200 40.92600
H  47.63400 25.33600 40.81200
H  50.94600 18.10600 43.24600
H  52.31600 17.25700 44.13100
H  52.35200 17.31500 42.43100
H  56.90400 19.01600 41.68500
H  57.10100 17.37500 42.25800
H  56.94000 18.76400 43.44000
H  57.86000 22.86500 41.86600
H  58.02800 25.24600 43.01400
H  58.00400 22.45500 44.80700
H  58.78500 23.97500 44.38500
H  59.43300 22.50300 43.72600
H  56.50400 25.71600 40.61300
H  57.40500 24.21500 40.39000
H  58.17800 27.02600 40.30800
H  58.72900 25.47900 39.59600
H  59.39500 25.89600 41.09100
H  54.34600 29.53100 43.08200
H  54.56000 29.07800 44.84800
H  53.08700 29.93100 44.22000
H  48.79600 27.08200 44.31700
H  46.90900 29.16800 40.78500
H  45.73600 27.93300 41.23100
H  47.15900 27.45300 40.28600
Mg 46.48800 44.18100 43.47500
C  43.15300 43.46100 43.30400
C  47.10800 40.75600 42.73500
C  49.77100 44.92500 43.24200
C  45.73500 47.57600 43.26500
N  45.18800 42.33600 42.67700
C  43.85400 42.27500 42.94800
C  43.32200 40.91600 42.58600
C  44.62300 40.02800 42.36600
C  45.76600 41.06300 42.61200
C  44.58600 38.65100 42.92100
C  42.20900 40.77400 41.44300
C  42.22600 41.75800 40.31100
H  42.13200 41.19200 38.90100
N  48.19100 42.96300 43.28600
C  48.25100 41.62900 43.02600
C  49.60100 41.16100 42.91600
C  50.41700 42.37800 43.18500
C  49.45800 43.50200 43.25700
C  50.07700 39.81200 42.65600
C  51.92500 42.49800 43.35200
O  52.62900 41.58000 43.12100
C  52.68900 43.74400 43.70500
N  47.56100 45.95400 43.15400
C  48.89600 45.98900 43.28400
C  49.46200 47.47200 42.97200
C  48.15100 48.31100 43.36800
C  47.10700 47.23300 43.19900
C  50.71200 47.88700 43.75300
C  48.00000 49.60500 42.54800
C  47.68500 50.93800 43.23700
N  44.79500 45.31200 43.20500
C  44.59800 46.68700 43.17600
C  43.22600 47.01600 43.20700
C  42.57500 45.79800 43.31300
C  43.57500 44.76200 43.30900
C  42.60800 48.38000 43.21500
C  41.37100 45.09400 43.47000
O  40.23700 45.56500 43.52900
C  41.64700 43.57300 43.29900
C  40.96100 42.96000 44.51100
O  40.13800 42.02200 44.45100
O  41.52200 43.52500 45.63200
C  41.27100 42.99100 46.99300
H  47.22800 39.72900 42.38400
H  50.80000 45.16300 42.96500
H  45.50900 48.64400 43.27100
H  42.74600 40.53700 43.43100
H  44.70600 39.88500 41.28900
H  45.47200 38.39300 43.50100
H  44.34100 37.90700 42.16300
H  43.78400 38.58200 43.65600
H  41.18300 40.86000 41.80100
H  42.35800 39.83500 40.90900
H  42.98200 42.53800 40.39500
H  41.27000 42.28200 40.33700
H  49.35900 39.10300 43.06700
H  51.06100 39.59900 43.07200
H  50.12200 39.70100 41.57200
H  51.89900 44.16700 44.32600
H  52.89000 44.37800 42.84200
H  53.62800 43.61700 44.24400
H  49.58000 47.51900 41.88900
H  48.02200 48.62000 44.40500
H  50.38700 48.59700 44.51400
H  51.51000 48.17200 43.06800
H  51.16800 47.06300 44.30100
H  47.21200 49.41800 41.81800
H  48.88600 49.70600 41.92100
H  48.29300 51.80900 42.99200
H  47.59300 50.84600 44.32000
H  46.63600 51.07800 42.97800
H  41.68900 48.46100 43.79600
H  42.39500 48.66700 42.18500
H  43.24900 49.14100 43.66200
H  41.15500 43.34600 42.35400
H  42.16000 43.01500 47.62300
H  40.93100 41.96000 46.89400
H  40.51300 43.43800 47.63500


