%nproc=24
%mem=175gb
#p PBE1PBE/Def2SVP td=(nstates=5, root=1) density=current

TDDFT excited states in gaussian

0 1
Mg 1.29600 7.71300 26.88100
C  1.46900 9.82700 29.67000
C  2.42600 5.06900 28.94700
C  1.47300 5.72500 24.13400
C  0.92500 10.50000 24.87700
N  1.69900 7.49100 29.04900
C  1.51500 8.49600 30.00300
C  1.43800 7.84300 31.43000
C  1.83300 6.38800 31.15200
C  2.05200 6.30500 29.60100
C  3.12000 6.01700 31.93700
C  0.04000 8.06800 31.99300
C  -0.12000 8.13500 33.50300
H  1.05800 7.66300 34.38500
N  1.84800 5.68100 26.53500
C  2.31100 4.77600 27.50900
C  2.63500 3.49600 26.90400
C  2.31300 3.59100 25.49300
C  1.87500 5.04400 25.33500
C  3.03900 2.24400 27.69300
C  2.37500 2.55400 24.38800
O  2.03400 2.84400 23.24900
C  2.64700 1.14500 24.75200
N  1.13700 8.09300 24.78900
C  1.15400 7.08500 23.87300
C  0.77800 7.64200 22.47500
C  0.53200 9.18300 22.70900
C  0.76500 9.29400 24.23800
C  1.89300 7.33600 21.45900
C  -0.89600 9.67800 22.35700
C  -0.86300 10.38200 21.00400
N  1.30900 9.79300 27.10700
C  1.22300 10.82400 26.23200
C  1.50800 12.06900 26.98600
C  1.50300 11.75700 28.31400
C  1.42300 10.34100 28.32600
C  1.55300 13.42200 26.29600
C  1.55800 12.26300 29.69200
O  1.68500 13.41500 30.08900
C  1.44800 11.03500 30.57500
C  2.56000 11.13900 31.53300
O  3.76600 10.89700 31.38900
O  2.04800 11.65700 32.70500
C  2.99200 11.90900 33.77200
H  2.69600 4.26200 29.63100
H  1.45200 4.99400 23.32300
H  0.89300 11.33000 24.16800
H  2.21800 8.40600 31.94400
H  1.06000 5.77700 31.61800
H  4.00400 5.85500 31.32000
H  2.97100 4.99800 32.29300
H  3.38200 6.77100 32.67900
H  -0.56100 7.28300 31.53300
H  -0.37400 8.97400 31.55200
H  -1.02500 7.59600 33.78000
H  -0.31800 9.19800 33.64500
H  3.22100 2.42800 28.75200
H  3.95300 1.82100 27.27400
H  2.28900 1.47200 27.52500
H  1.81900 0.77800 25.35900
H  3.66100 1.02700 25.13400
H  2.61600 0.48900 23.88200
H  -0.10600 7.10300 22.13500
H  1.34500 9.68200 22.18000
H  2.33200 8.19000 20.94400
H  1.31000 6.77100 20.73200
H  2.77000 6.84600 21.88100
H  -1.17200 10.51700 22.99600
H  -1.64500 8.88600 22.34300
H  -1.71200 9.95300 20.47200
H  -0.02300 10.09700 20.37100
H  -0.94100 11.46900 21.03900
H  1.59500 13.38900 25.20700
H  2.38500 14.03800 26.63500
H  0.58900 13.91000 26.44400
H  0.47700 11.06900 31.06800
H  3.81000 12.49700 33.35500
H  3.40600 11.00100 34.21100
H  2.51900 12.68100 34.37800


