%nproc=24
%mem=175gb
#p PBE1PBE/Def2SVP td=(nstates=5) density=(current)

TDDFT excited states in gaussian

0 1
Mg -5.21000 24.54100 27.19500
C  -3.54100 26.38400 29.69300
C  -6.38000 22.49900 29.72600
C  -6.78300 22.59100 24.87600
C  -3.73200 26.39300 24.81700
N  -5.00900 24.47500 29.48500
C  -4.39300 25.40300 30.31600
C  -4.77800 25.15700 31.76100
C  -5.38000 23.70500 31.74000
C  -5.61200 23.56800 30.25200
C  -4.48700 22.58300 32.40100
C  -5.82800 26.14800 32.28500
C  -5.66000 26.57200 33.74800
H  -5.92800 25.52000 34.86000
N  -6.48000 22.85300 27.28100
C  -6.76500 22.19100 28.42600
C  -7.52200 21.02600 28.10100
C  -7.81700 21.04500 26.69400
C  -6.98500 22.14200 26.23200
C  -7.94700 20.03100 29.14500
C  -8.63000 20.10000 25.80900
O  -8.90700 20.38500 24.62300
C  -9.08700 18.72400 26.28000
N  -5.32000 24.55800 25.17000
C  -5.97300 23.61500 24.38200
C  -5.69900 23.91000 22.94300
C  -4.77200 25.17400 22.83700
C  -4.60800 25.45200 24.34000
C  -5.24900 22.67900 22.10000
C  -5.37300 26.38000 22.08300
C  -4.94400 26.45700 20.60500
N  -3.89500 26.01800 27.18100
C  -3.38100 26.77900 26.13200
C  -2.50100 27.90900 26.61000
C  -2.55000 27.71500 28.00000
C  -3.42600 26.62300 28.30100
C  -1.78700 28.93500 25.74900
C  -2.03300 28.27400 29.24000
O  -1.24900 29.20200 29.44300
C  -2.78100 27.47500 30.39000
C  -1.66500 26.98400 31.33300
O  -0.58100 26.54900 31.00300
O  -2.03300 27.27600 32.64500
C  -1.03300 26.85400 33.62600
H  -6.79600 21.92300 30.55500
H  -7.24600 22.04300 24.05300
H  -3.20100 26.86300 23.98700
H  -3.94200 25.15700 32.46000
H  -6.32400 23.59600 32.27400
H  -3.58700 22.93500 32.90600
H  -4.09000 21.81900 31.73300
H  -5.03500 22.07100 33.19200
H  -6.83700 25.75100 32.17600
H  -5.77900 27.08800 31.73500
H  -6.23400 27.46900 33.98000
H  -4.65000 26.93300 33.94100
H  -7.01100 19.85400 29.67500
H  -8.29300 19.05500 28.80500
H  -8.67800 20.40400 29.86200
H  -8.25700 18.16700 26.71500
H  -9.45700 18.28200 25.35500
H  -9.85300 18.80700 27.05100
H  -6.66900 24.06000 22.46800
H  -3.77200 24.98400 22.44500
H  -5.16100 21.82900 22.77700
H  -4.26700 22.88500 21.67500
H  -6.05700 22.54500 21.38000
H  -5.16500 27.26900 22.67800
H  -6.45400 26.27700 21.98600
H  -4.65800 25.46600 20.25200
H  -4.05700 27.05100 20.38400
H  -5.81000 26.77000 20.02100
H  -2.54700 29.61400 25.36200
H  -1.26100 28.53800 24.88100
H  -1.10500 29.45700 26.42000
H  -3.50500 28.04800 30.96900
H  -1.16000 25.83800 34.00100
H  -1.12400 27.59400 34.42100
H  0.01800 26.83100 33.33800


