%nproc=24
%mem=175gb
#p PBE1PBE/Def2SVP td=(nstates=5) density=(transition=1)

TDDFT excited states in gaussian

0 1
Mg 53.43000 23.68000 44.03900
C  50.60500 25.72200 43.59200
C  51.43200 20.92900 43.52700
C  56.21400 21.92200 43.71600
C  55.42100 26.61100 44.29000
N  51.34600 23.39300 43.36500
C  50.33600 24.38200 43.24300
C  48.97800 23.81200 43.21200
C  49.26700 22.25100 43.29300
C  50.77800 22.16700 43.44100
C  48.41400 21.54400 44.37400
C  48.22300 24.06100 41.94200
C  49.03400 24.02900 40.63800
H  48.41800 23.46200 39.30000
N  53.81600 21.66600 43.70400
C  52.86000 20.71900 43.65000
C  53.50000 19.42800 43.60900
C  54.89000 19.67000 43.73700
C  55.04900 21.13300 43.75700
C  52.80700 18.10400 43.43000
C  55.97700 18.59900 43.82300
O  55.69800 17.41700 43.77300
C  57.46200 18.80800 43.85800
N  55.50100 24.20200 43.75000
C  56.49500 23.26200 43.68900
C  57.90500 23.90500 43.90100
C  57.59200 25.42600 43.76600
C  56.09200 25.42600 43.96400
C  58.57700 23.60200 45.26200
C  57.80600 26.06200 42.31200
C  58.53500 27.35500 42.24600
N  53.14400 25.68200 44.06800
C  53.99400 26.67600 44.35900
C  53.22600 27.91400 44.76200
C  51.87400 27.51900 44.50800
C  51.89200 26.20900 43.95100
C  53.71800 29.26500 45.26100
C  50.53800 28.03700 44.44100
O  50.10500 29.15300 44.68100
C  49.65300 26.85900 43.86500
C  49.16300 27.30200 42.50200
O  49.80500 27.46200 41.51700
O  47.78800 27.38800 42.55400
C  47.15600 27.52600 41.23800
H  50.76800 20.06300 43.56200
H  57.13800 21.34600 43.78900
H  56.08600 27.44900 44.50900
H  48.42400 24.23500 44.05000
H  49.15700 21.69500 42.36200
H  48.03700 20.69600 43.80200
H  47.64400 22.25100 44.68300
H  49.00900 21.15600 45.20100
H  47.55300 24.92000 41.98700
H  47.44900 23.32600 41.72000
H  49.94100 23.47800 40.88900
H  49.32900 25.07300 40.53100
H  53.31800 17.49200 42.68600
H  51.75400 18.26600 43.20000
H  52.89400 17.62800 44.40700
H  57.89700 19.23300 42.95400
H  57.81600 17.77700 43.85100
H  57.81900 19.19500 44.81300
H  58.56100 23.52900 43.11600
H  58.08000 26.03800 44.52500
H  58.61900 24.52500 45.84000
H  59.48300 23.00800 45.14300
H  57.92700 22.93400 45.82600
H  56.85800 26.15700 41.78300
H  58.38300 25.30400 41.78200
H  59.40900 27.31900 41.59600
H  58.83900 27.73400 43.22200
H  57.92000 28.14400 41.81400
H  53.34500 30.00700 44.55500
H  54.79200 29.18400 45.43300
H  53.17000 29.44900 46.18500
H  48.82700 26.60000 44.52700
H  47.72400 27.04800 40.44000
H  47.12200 28.60500 41.08700
H  46.11800 27.22500 41.37700
Mg -2.51200 34.32000 26.71000
C  -3.70600 32.37000 29.49400
C  -1.09600 36.45200 28.85600
C  -2.23500 36.47200 24.15600
C  -4.45400 32.24200 24.65700
N  -2.47200 34.41100 28.88300
C  -2.84200 33.43600 29.82500
C  -2.27900 33.77800 31.25700
C  -1.51600 35.11400 31.00700
C  -1.64900 35.32300 29.47500
C  -1.96800 36.32500 31.78300
C  -1.39500 32.57400 31.88800
C  -1.81300 32.12300 33.29300
H  -0.66900 32.23700 34.36800
N  -1.63700 36.15800 26.50500
C  -1.11000 36.89500 27.48800
C  -0.61000 38.17800 26.99100
C  -1.04200 38.20400 25.62000
C  -1.69000 36.91400 25.36100
C  0.10900 39.14600 27.82900
C  -0.90500 39.45100 24.69100
O  -1.22300 39.41800 23.51400
C  -0.35500 40.75800 25.16600
N  -3.22300 34.33100 24.76300
C  -2.85500 35.30500 23.84100
C  -3.39300 34.95800 22.41400
C  -3.78700 33.44000 22.55100
C  -3.77600 33.28900 24.07200
C  -4.45800 35.91300 21.78300
C  -2.78800 32.46000 21.87700
C  -3.33300 31.25600 21.15100
N  -3.86100 32.67700 26.98500
C  -4.55900 31.95500 26.05900
C  -5.21600 30.76800 26.76200
C  -4.86600 30.86600 28.08700
C  -4.10200 32.07900 28.18800
C  -5.97600 29.69500 26.01600
C  -4.98700 30.30300 29.42000
O  -5.62100 29.26000 29.68400
C  -4.28200 31.35300 30.46900
C  -5.23900 32.03400 31.42500
O  -6.23700 32.64900 31.00000
O  -4.96700 31.73200 32.76000
C  -6.09800 32.02100 33.63400
H  -0.51900 37.13000 29.48800
H  -2.04400 37.20300 23.36800
H  -4.93400 31.57200 23.94000
H  -3.19000 33.89300 31.84400
H  -0.52800 34.94900 31.43900
H  -2.83400 36.13100 32.41600
H  -2.36000 36.92300 30.96100
H  -1.18900 36.74500 32.42000
H  -0.38600 32.98500 31.87000
H  -1.36700 31.74700 31.17900
H  -2.21200 31.11400 33.18900
H  -2.62300 32.76200 33.64700
H  -0.25500 40.16900 27.91900
H  1.01900 39.36100 27.27000
H  0.49900 38.75500 28.76900
H  0.66500 40.53600 25.48200
H  -0.91700 41.02300 26.06200
H  -0.46600 41.44500 24.32800
H  -2.50600 35.02500 21.78400
H  -4.81400 33.23900 22.24700
H  -4.50900 36.75000 22.47900
H  -5.42000 35.44200 21.58300
H  -4.08600 36.40600 20.88400
H  -2.24500 32.16900 22.77600
H  -2.06500 32.93000 21.21000
H  -2.75000 31.18100 20.23300
H  -4.37700 31.36900 20.85700
H  -3.03100 30.39100 21.74200
H  -5.97600 29.97600 24.96300
H  -7.01700 29.73400 26.33600
H  -5.54700 28.71900 26.24200
H  -3.48200 30.82800 30.99100
H  -6.59400 31.14900 34.05800
H  -6.86800 32.64200 33.17600
H  -5.69700 32.60500 34.46200


