%nproc=24
%mem=175gb
#p PBE1PBE/Def2SVP td=(nstates=5) density=(transition=1)

TDDFT excited states in gaussian

0 1
Mg 47.33900 34.91800 28.07800
C  45.68800 33.19800 30.68300
C  48.10100 37.44900 30.24400
C  48.24300 36.72400 25.47200
C  46.07200 32.47700 25.83700
N  47.02000 35.19800 30.25900
C  46.36000 34.38500 31.06000
C  46.67100 34.77400 32.49400
C  47.03300 36.30500 32.38100
C  47.41200 36.35800 30.85400
C  45.84200 37.21500 32.86800
C  47.88800 34.00400 33.06800
C  47.98300 33.94800 34.65600
H  46.95600 34.64300 35.55400
N  48.24300 36.70300 27.90700
C  48.56900 37.63000 28.93000
C  49.30300 38.76000 28.31400
C  49.26700 38.57700 26.88500
C  48.57000 37.29400 26.64900
C  49.93800 39.85800 29.09200
C  49.83100 39.42600 25.68000
O  49.78800 39.06500 24.49600
C  50.32700 40.81500 25.96000
N  47.07800 34.69300 25.91700
C  47.58500 35.54400 25.06500
C  47.43000 35.17200 23.61700
C  46.71000 33.78100 23.71200
C  46.68600 33.56800 25.25900
C  46.76800 36.29200 22.80900
C  47.43400 32.63900 23.01000
C  46.53900 31.60900 22.23200
N  46.16500 33.09500 28.16200
C  45.77400 32.19200 27.15400
C  45.18200 31.05300 27.76700
C  44.95200 31.44600 29.12400
C  45.59700 32.64100 29.31900
C  44.92100 29.73400 27.09800
C  44.48300 31.08700 30.48400
O  43.89600 30.09800 30.87100
C  44.73800 32.34900 31.43800
C  44.99200 31.90700 32.84200
O  45.89000 31.21500 33.22200
O  43.96300 32.32800 33.70500
C  43.67300 31.45600 34.86300
H  48.20800 38.37100 30.82000
H  48.63100 37.17100 24.55500
H  45.76300 31.70600 25.12800
H  45.78600 34.43600 33.03300
H  47.91000 36.55500 32.97900
H  44.99600 36.59900 33.17100
H  45.50600 37.70100 31.95200
H  46.07700 37.86100 33.71400
H  48.75200 34.55000 32.68700
H  47.86600 33.00400 32.63500
H  48.97800 34.33500 34.88100
H  48.01300 32.88400 34.89200
H  50.02200 39.76300 30.17400
H  49.40400 40.80200 28.98700
H  50.95300 39.89900 28.69600
H  51.37600 40.86200 26.25200
H  49.62900 41.09200 26.75100
H  50.11900 41.39300 25.06000
H  48.46800 35.04700 23.30900
H  45.69100 33.78300 23.32700
H  46.13600 36.95200 23.40400
H  46.11300 35.78300 22.10300
H  47.49100 36.91500 22.28200
H  48.02000 32.05200 23.71700
H  48.21400 33.13900 22.43600
H  45.47900 31.78000 22.41900
H  46.81500 30.64200 22.65200
H  46.65400 31.52300 21.15100
H  44.41500 29.99000 26.16700
H  44.28000 29.05700 27.66300
H  45.86600 29.26100 26.82900
H  43.79600 32.88200 31.56300
H  43.90900 32.01600 35.76800
H  44.22800 30.51800 34.82500
H  42.60300 31.25600 34.80700
Mg 40.80400 41.48400 27.15800
C  39.93800 43.96600 29.51800
C  41.67100 39.43500 29.59200
C  42.41200 39.59100 24.81200
C  40.80000 44.20800 24.65700
N  40.84000 41.74700 29.31900
C  40.23400 42.70800 30.04600
C  40.11400 42.23500 31.50800
C  40.62500 40.83000 31.52200
C  41.12800 40.63200 30.06000
C  41.62900 40.55000 32.71400
C  38.74000 42.40700 32.23800
C  38.20000 41.35400 33.29800
H  37.58800 41.87900 34.60500
N  41.67300 39.62800 27.19200
C  41.94100 38.92200 28.34300
C  42.50600 37.66000 27.95800
C  42.79100 37.65600 26.53700
C  42.34000 39.00600 26.13300
C  42.84100 36.69600 29.02300
C  43.34600 36.53900 25.61900
O  43.54900 36.75600 24.47000
C  43.39500 35.12400 26.09600
N  41.54800 41.90500 25.04000
C  42.04300 40.86300 24.33500
C  42.34300 41.24800 22.85100
C  41.79900 42.70700 22.76800
C  41.36100 43.00200 24.22400
C  43.78600 41.15300 22.43200
C  40.63300 43.00600 21.76200
C  39.24100 42.61000 22.12200
N  40.45200 43.63600 26.97900
C  40.44000 44.51600 25.93500
C  39.94600 45.79200 26.39200
C  39.72700 45.66500 27.78900
C  40.09700 44.34100 28.10100
C  39.86300 47.06500 25.62600
C  39.33400 46.33800 28.99400
O  38.92600 47.46900 29.23200
C  39.40400 45.25700 30.16400
C  40.16300 45.75100 31.38400
O  41.33900 46.00900 31.38400
O  39.30000 45.80400 32.46700
C  39.93400 46.30500 33.68700
H  41.79100 38.62500 30.31500
H  42.89000 38.90600 24.10900
H  40.69600 44.98800 23.90000
H  40.78700 42.96300 31.96100
H  39.78000 40.17800 31.74500
H  41.64600 41.41100 33.38200
H  42.57700 40.23500 32.27800
H  41.25100 39.76900 33.37400
H  37.98000 42.45900 31.45800
H  38.66600 43.37100 32.74200
H  39.06500 40.72800 33.51800
H  37.46000 40.71500 32.81600
H  43.75800 36.20700 28.69500
H  42.05100 35.94600 29.03300
H  42.98100 37.00500 30.05900
H  44.39900 35.05700 26.51300
H  43.13900 34.46100 25.26900
H  42.74200 34.89700 26.93900
H  41.71500 40.69400 22.15300
H  42.49200 43.53200 22.60600
H  44.38600 40.63600 23.18200
H  44.24800 42.13400 22.31800
H  43.78100 40.59500 21.49600
H  40.84900 42.53700 20.80200
H  40.70100 44.05800 21.48400
H  39.26600 41.80800 22.86000
H  38.56300 42.19300 21.37700
H  38.76600 43.53300 22.45600
H  40.81300 47.42600 25.23300
H  39.70300 47.84000 26.37600
H  39.09100 47.02600 24.85700
H  38.36800 45.04000 30.42500
H  39.84500 45.31900 34.14200
H  39.21300 47.03100 34.06200
H  40.94500 46.67900 33.52400


