%nproc=24
%mem=175gb
#p PBE0/Def2SVP td=(nstates=5) density=(transition=1)

TDDFT excited states in gaussian

0 1
